Hf  O  F  H                             
   1.00000000000000     
    13.7225301000000002    0.0000000000000000    0.0000000000000000
     0.0000000000000000   13.7225301000000002    0.0000000000000000
     0.0000000000000000    0.0000000000000000   32.7225301000000002
   Hf   O    F    H 
    72   144     2     2
Direct
  0.0521490423345539  0.9126749241872457  0.4283361170914709
  0.8464486265874832  0.9572892467051183  0.5058553231871001
  0.0016814071350822  0.5862872611768651  0.4014955025707249
  0.8969654308806343  0.6394692393468578  0.3102178693577907
  0.0713670046891043  0.7995417277009017  0.3289154935040049
  0.4043805381741759  0.9398773860197890  0.5613262849660976
  0.6444467091988721  0.5272316683353965  0.2806989592853847
  0.6729572998947571  0.7827658153285432  0.2975256558404064
  0.0537633698267657  0.6460465890706789  0.6681832924759219
  0.2672915887352589  0.0388810016195607  0.4162872558585550
  0.9096876934436280  0.7460420244544720  0.4640432834630868
  0.2771904255027590  0.7311714528038572  0.2976759134060148
  0.1208688727715291  0.5113297943101234  0.3128425770909145
  0.3275983635237364  0.1500772922574742  0.5308734861306084
  0.5361546037497481  0.0242571522084420  0.6684343900160378
  0.2835202804926588  0.6379657159925446  0.6548376248697581
  0.5599089699288821  0.3880320806515931  0.5399262444396077
  0.4577491639192892  0.9615002503468456  0.3217574539661113
  0.2791951246332038  0.6473204357560882  0.3950333357325456
  0.8946298032961666  0.7286595159300523  0.5636889245231587
  0.8479733429365907  0.4300302067811726  0.3147440017328829
  0.9062577304004701  0.1071981031596096  0.5783890368649851
  0.0189033498558150  0.3404533448629558  0.3879569376006430
  0.9332560355848782  0.5088548113909963  0.5926141566421169
  0.1503892987081251  0.5688511716605605  0.5720649807958925
  0.1775610346294093  0.2475667303966478  0.4505657319337634
  0.1119921297536986  0.2918084456587516  0.5433288616254255
  0.7445942016320660  0.5580139508047305  0.5148295551042701
  0.3707521762819296  0.1559293423593640  0.6335852907676558
  0.6499548892979384  0.1627851160889146  0.6138674148265835
  0.5457318023348851  0.3163586152253097  0.6791395675620008
  0.2766218408165715  0.4395230501196625  0.4972636107158325
  0.3176952728572274  0.3688935032374520  0.6063553808195158
  0.8265160911792309  0.0140028569178280  0.4070383932387200
  0.1483819749321272  0.0329852247948323  0.5146170150987743
  0.8328073365791622  0.6972750346995447  0.6676712519275614
  0.4913278152944676  0.6407528193413283  0.3521010395682217
  0.0192859918422632  0.4755971912836255  0.4970045794396926
  0.8742531021067780  0.9270146753894444  0.3137237689010143
  0.4121394456422680  0.8076401778772115  0.4448431185344021
  0.4612656524561492  0.3041366784949682  0.4507059015169455
  0.5904075824626264  0.8126996125214443  0.5037071595047501
  0.3640166263492597  0.7026226393136176  0.5486220717883582
  0.1526529580013102  0.8175247237314743  0.5794264166330718
  0.6851249794682031  0.2224814860609055  0.4339890240930233
  0.5114895461155565  0.0315005155298658  0.4162745239429709
  0.2866094891172678  0.9593965963200004  0.6514507727093516
  0.4834803739675354  0.5504807105448251  0.4708335900469048
  0.5683041851072491  0.1500192662800841  0.5198467682324540
  0.0589754948286078  0.0623839647617175  0.3585801058094490
  0.8084598315674002  0.4155440008491714  0.4334985472734393
  0.6874688814659453  0.9302853098409593  0.5826874582391884
  0.4891085632782675  0.7979424783818359  0.6560792971253959
  0.6438699519423352  0.8592425094163044  0.3952307687380994
  0.2542789513162635  0.9801664540730879  0.3071064315998026
  0.4659918531362847  0.5475506713399728  0.6187898515865268
  0.6622446437435162  0.2849782418934348  0.2837611338484491
  0.6539332375187078  0.6910782232057404  0.5907194141210681
  0.0027858134094088  0.8983957159356991  0.6447429127623022
  0.7470389334236269  0.6384849333652467  0.3927605627140635
  0.3037135227038174  0.4294184338678722  0.3921453183382865
  0.6865181757188776  0.0250621815234510  0.2705101878692602
  0.5734679218490901  0.4165438065015001  0.3717823594962637
  0.4516196985888850  0.2124182265679572  0.3568700507921281
  0.6933495280535262  0.4760865782074173  0.6256377945049637
  0.1491832774670051  0.6822854863847877  0.4764619077081780
  0.8482953226575233  0.3076950620574099  0.6461880502273311
  0.8588469338062743  0.1915324048920816  0.3388488358271863
  0.1111738879612905  0.1655742540372090  0.6201181083629703
  0.8291094092652982  0.3415805778267775  0.5356758830919712
  0.9378648449322250  0.1831604280216482  0.4806929819320322
  0.1879295518696526  0.2422235418542936  0.3340598740478537
  0.3257551171820323  0.2340534618111382  0.3282336889760948
  0.9135644785940323  0.8320983255716626  0.5182219753946414
  0.3624258468084686  0.8573285452823963  0.3055438178506503
  0.5565054285861909  0.8799819319452759  0.4486140070532887
  0.0613461644551879  0.4389404155709041  0.5558929469513223
  0.0467767989896309  0.4739703091827952  0.3658880054953513
  0.0060384797454142  0.0491501427208604  0.6195113588563407
  0.2901173742728201  0.5195862350157395  0.4408460661109410
  0.1682835768777263  0.9715757692529003  0.4566434784801601
  0.0129232263741179  0.2130566266370214  0.3464922881493138
  0.3698206185860833  0.0365622872333820  0.2819411289504423
  0.1133533812656757  0.9080726984409208  0.5369226196081989
  0.4388437367882155  0.9133367151617431  0.6260927722254901
  0.6770954557635341  0.9970133975841541  0.4079980838647901
  0.2894494535913114  0.0000769218890716  0.5247000089551285
  0.5417748474049708  0.3374121888870222  0.7322410959700180
  0.0518959139157981  0.7872372740629378  0.6759428220779057
  0.7654725566563862  0.5559972877707972  0.4433169119910902
  0.8965473053695789  0.3590518595356461  0.5892498294567570
  0.3578643283442386  0.2358104285557557  0.5803211022036726
  0.8267912485100497  0.9839698488774932  0.5678225539753078
  0.2764321534162488  0.7357972332277480  0.4501689898288753
  0.0220634258044577  0.9487614836448857  0.3166702602304503
  0.7110279537163431  0.8991021383389075  0.5104079565734960
  0.4020451748457820  0.5537903735879351  0.3843699810671133
  0.9370042002280968  0.7837834520651293  0.2983145942311135
  0.8213921422616739  0.2702672645550892  0.4520549254180294
  0.0547062236939848  0.7919724307597755  0.4658725353163435
  0.1588819133488083  0.6845325993316204  0.6182470645781118
  0.8790013368553904  0.3378209905669659  0.3644812070952819
  0.5100015595923652  0.6946222387832796  0.4614911999366679
  0.7876549094293763  0.5964099846221516  0.5743799213107111
  0.1802340326232149  0.1375485880789244  0.5602331825359325
  0.5597015839500395  0.2908219138967732  0.3249186078643544
  0.9689198612189366  0.5048651165816795  0.2923314167172623
  0.6505788191521474  0.6920374604539938  0.5273144687324682
  0.5574517593246562  0.2537696096972432  0.4041648027613509
  0.0102229217727652  0.6230594326382476  0.5543707083065461
  0.9653543280294573  0.3247114310147466  0.5065449033317169
  0.4380328112247195  0.2182414613839813  0.4989720670219985
  0.4333182675713805  0.4105946343098233  0.4978928091977926
  0.8921502577840532  0.6862639902106791  0.4070402095436926
  0.4052222230527818  0.7365898128664690  0.3904410188154859
  0.5976555687990325  0.1658225856826070  0.6752085813457286
  0.7927685628054797  0.5484079688899208  0.2797500769642163
  0.8867498654671235  0.8962135085833327  0.4443490995529452
  0.5885076295987376  0.2532472916091569  0.5666448861710244
  0.6048690269626343  0.2888900070976176  0.4856941552619503
  0.8069145959415193  0.1769304648425475  0.6161988576091075
  0.1791912597034181  0.8515689045203302  0.2890305464649831
  0.3296788271316005  0.0016826792685528  0.3587589184283048
  0.7108218294031734  0.6271153255782317  0.6477308077837005
  0.3139008673724204  0.6151097497851267  0.5929479983552156
  0.5337135735269701  0.5116749178910497  0.3189582116695769
  0.8934449399524498  0.9192061303838018  0.6865172123791606
  0.1990427334019190  0.7061095951085141  0.5367947592012665
  0.4587902404869935  0.0624532171592675  0.5336997467982182
  0.1332465571620056  0.3818901190894861  0.4776038154161421
  0.1533945598122200  0.9608051790329050  0.3804408620130199
  0.6151608659811567  0.8062484593160225  0.6261740641061329
  0.6569004596160443  0.0759284237028800  0.5593803436536195
  0.2305456557210165  0.5270365128085736  0.3564010329831472
  0.4011634930405248  0.6620542240870142  0.3069589998650133
  0.4509730048623604  0.4222568146532658  0.5809353001705900
 -0.0096189047472563  0.0440986296585142  0.4176354355890406
  0.9653918045315126  0.0537891517751240  0.5178340751898559
  0.3317070337949860  0.4889653912442428  0.6443720334619908
  0.5899009123439929  0.9262164351228801  0.2923225803635613
  0.8119952309318884  0.2844573044689335  0.2924100273570873
  0.0014624409896840  0.6140538767747751  0.4668441569284953
  0.0221774206029550  0.2472493529739981  0.4325921716869218
  0.4861078266530883  0.6910293011116460  0.5849896074230437
  0.4262225350030349  0.3584221536664216  0.3752309512955106
  0.2597550788504139  0.1308604705169921  0.4690266381183915
  0.8392643036185599  0.1953461389810004  0.5313222827897639
  0.1782204254453803  0.2991380869751629  0.6043097283828581
  0.0134999235528537  0.2091474553202551  0.5740780338242283
  0.9188409021256891  0.6574360028652759  0.6231085051708759
  0.7673714178430813  0.8905728141314994  0.2698524218779497
  0.7688490618728112  0.7930167915073180  0.5839075813325134
  0.5045826570251147  0.1082917504340423  0.6158166909305014
  0.8366478918120003  0.6730480133246807  0.5057187549885606
  0.3064302141219242  0.8290441415296667  0.5773021558872926
  0.3953803127970119  0.0545292884072719  0.6794638175147758
  0.4055508714856201  0.1443579344049800  0.4113010105823700
  0.5965893516138805  0.1098807782364322  0.4593853464876880
  0.1571364232416880  0.5473435054160974  0.5043678252402226
  0.5209285433085421  0.4401490660835062  0.4308194779430155
  0.1503524051179363  0.3673519939634192  0.3050914681526682
  0.5111709605794393  0.9121332313987941  0.3770681664799476
  0.8530857076260480  0.5414132208987098  0.3596117840278027
  0.5987930033567317  0.5507874730980431  0.5888482230258535
  0.0281698968135186  0.6495610208010674  0.3408945589602139
  0.7035287046116274  0.4130155914960298  0.5641641147377491
  0.2135961725639278  0.7361155760392399  0.3520723979418805
  0.8871304543712211  0.4880760799896601  0.5292032447635437
  0.8224498985284245  0.0763753988048273  0.4627227460948617
  0.3293430676303174  0.0362696050048327  0.5975838589467533
  0.6975470051651821  0.4202152082213456  0.3196626393897566
  0.7722432830159142  0.1605157706686135  0.3854376305133461
  0.5227486461148595  0.0839521323157894  0.3519663411554019
 -0.0004277525103702  0.8175640773016684  0.5928570381603963
  0.4014249443751412  0.2936178532081311  0.6542792660428022
  0.3857013073733212  0.9567978270290517  0.4371481946408926
  0.6195395425691161  0.5672559835742640  0.3809506018098223
  0.6424725319778245  0.1560834995157410  0.2549930396255296
  0.7118616159141735  0.7542904329994738  0.4257779679169969
  0.7841317177214077  0.8976376696846788  0.3599091975579971
  0.9585467858942501  0.4475948130573388  0.4324752997491983
  0.8528447720811207  0.8473157487987747  0.6568446735177493
  0.5947133152553684  0.5145643843034500  0.5063935805557921
  0.0612597883489278  0.5273537306981031  0.6236676374032190
  0.4370832143377530  0.6522252861808990  0.6632639598157186
  0.6271063761490802  0.6723648235628794  0.2664483720642684
  0.5602064994698515  0.4616096637748383  0.6545605989468569
  0.5954561222343620  0.7597133678985384  0.3485273772437608
  0.7713064357246304  0.7045438395423227  0.3305775235243080
  0.6970022965023123  0.3633486912758155  0.4017826190624805
  0.7571880170837294  0.4159276571082247  0.4898142630736683
  0.3119032330776016  0.3328190703873011  0.4430142840719114
  0.9262532759010553  0.6354493197330392  0.7020343247537510
  0.5333669273921631  0.8908050485174169  0.6965522496931321
  0.8057448552258266  0.0698897675288773  0.2958527856049740
  0.1786136780783339  0.1509386862721517  0.3923571156101848
  0.2242862751122646  0.1120731995772044  0.6508612356439959
  0.5571130456931070  0.8893779612370334  0.5553966010654201
  0.1745963988162994  0.3333061617721744  0.3879036472281082
  0.0883662192237989  0.1802654610766629  0.4949841641586942
  0.2520632710758453  0.4511334069553318  0.5596537491242246
  0.0003398253962170  0.2443161030784981  0.6550035875515480
  0.0169920407884120  0.8284521286133171  0.3820363015489043
  0.9049320912006963  0.0508611902287772  0.3536053250424140
  0.6633864152855984  0.0104967207538960  0.6329602155708611
  0.3714011192860784  0.5866360600797276  0.5095023956677867
  0.8376326174889341  0.4626063752744618  0.6427311677192529
  0.1367154309582570  0.6327374621952102  0.4163919481010488
  0.4254884427719005  0.8172687318891779  0.5103833903609394
  0.1805633934947578  0.6117721645299280  0.6940811126069842
  0.3155911268416893  0.7977389242792601  0.6699199781397066
  0.1815233168796605  0.6236774549097063  0.2810605990691054
  0.1605911008236676  0.1012421988370404  0.3123966905076038
  0.6949539869888162  0.3224413971076327  0.6428050686423364
  0.1568412797261110  0.9131575444272819  0.6271028315692330
  0.2486220587458114  0.2856981607908320  0.5144687979492564
  0.8586273463755478  0.3021269286020349  0.7049340994539791
  0.2341199089468064  0.9475552520668634  0.7067039100945721
  0.0052088208397991  0.2433069949000079  0.6848239060710568
  0.2874515284591084  0.8100586012873030  0.6971624527498471
 
  0.00000000E+00  0.00000000E+00  0.00000000E+00
  0.00000000E+00  0.00000000E+00  0.00000000E+00
  0.00000000E+00  0.00000000E+00  0.00000000E+00
  0.00000000E+00  0.00000000E+00  0.00000000E+00
  0.00000000E+00  0.00000000E+00  0.00000000E+00
  0.00000000E+00  0.00000000E+00  0.00000000E+00
  0.00000000E+00  0.00000000E+00  0.00000000E+00
  0.00000000E+00  0.00000000E+00  0.00000000E+00
  0.00000000E+00  0.00000000E+00  0.00000000E+00
  0.00000000E+00  0.00000000E+00  0.00000000E+00
  0.00000000E+00  0.00000000E+00  0.00000000E+00
  0.00000000E+00  0.00000000E+00  0.00000000E+00
  0.00000000E+00  0.00000000E+00  0.00000000E+00
  0.00000000E+00  0.00000000E+00  0.00000000E+00
  0.00000000E+00  0.00000000E+00  0.00000000E+00
  0.00000000E+00  0.00000000E+00  0.00000000E+00
  0.00000000E+00  0.00000000E+00  0.00000000E+00
  0.00000000E+00  0.00000000E+00  0.00000000E+00
  0.00000000E+00  0.00000000E+00  0.00000000E+00
  0.00000000E+00  0.00000000E+00  0.00000000E+00
  0.00000000E+00  0.00000000E+00  0.00000000E+00
  0.00000000E+00  0.00000000E+00  0.00000000E+00
  0.00000000E+00  0.00000000E+00  0.00000000E+00
  0.00000000E+00  0.00000000E+00  0.00000000E+00
  0.00000000E+00  0.00000000E+00  0.00000000E+00
  0.00000000E+00  0.00000000E+00  0.00000000E+00
  0.00000000E+00  0.00000000E+00  0.00000000E+00
  0.00000000E+00  0.00000000E+00  0.00000000E+00
  0.00000000E+00  0.00000000E+00  0.00000000E+00
  0.00000000E+00  0.00000000E+00  0.00000000E+00
  0.00000000E+00  0.00000000E+00  0.00000000E+00
  0.00000000E+00  0.00000000E+00  0.00000000E+00
  0.00000000E+00  0.00000000E+00  0.00000000E+00
  0.00000000E+00  0.00000000E+00  0.00000000E+00
  0.00000000E+00  0.00000000E+00  0.00000000E+00
  0.00000000E+00  0.00000000E+00  0.00000000E+00
  0.00000000E+00  0.00000000E+00  0.00000000E+00
  0.00000000E+00  0.00000000E+00  0.00000000E+00
  0.00000000E+00  0.00000000E+00  0.00000000E+00
  0.00000000E+00  0.00000000E+00  0.00000000E+00
  0.00000000E+00  0.00000000E+00  0.00000000E+00
  0.00000000E+00  0.00000000E+00  0.00000000E+00
  0.00000000E+00  0.00000000E+00  0.00000000E+00
  0.00000000E+00  0.00000000E+00  0.00000000E+00
  0.00000000E+00  0.00000000E+00  0.00000000E+00
  0.00000000E+00  0.00000000E+00  0.00000000E+00
  0.00000000E+00  0.00000000E+00  0.00000000E+00
  0.00000000E+00  0.00000000E+00  0.00000000E+00
  0.00000000E+00  0.00000000E+00  0.00000000E+00
  0.00000000E+00  0.00000000E+00  0.00000000E+00
  0.00000000E+00  0.00000000E+00  0.00000000E+00
  0.00000000E+00  0.00000000E+00  0.00000000E+00
  0.00000000E+00  0.00000000E+00  0.00000000E+00
  0.00000000E+00  0.00000000E+00  0.00000000E+00
  0.00000000E+00  0.00000000E+00  0.00000000E+00
  0.00000000E+00  0.00000000E+00  0.00000000E+00
  0.00000000E+00  0.00000000E+00  0.00000000E+00
  0.00000000E+00  0.00000000E+00  0.00000000E+00
  0.00000000E+00  0.00000000E+00  0.00000000E+00
  0.00000000E+00  0.00000000E+00  0.00000000E+00
  0.00000000E+00  0.00000000E+00  0.00000000E+00
  0.00000000E+00  0.00000000E+00  0.00000000E+00
  0.00000000E+00  0.00000000E+00  0.00000000E+00
  0.00000000E+00  0.00000000E+00  0.00000000E+00
  0.00000000E+00  0.00000000E+00  0.00000000E+00
  0.00000000E+00  0.00000000E+00  0.00000000E+00
  0.00000000E+00  0.00000000E+00  0.00000000E+00
  0.00000000E+00  0.00000000E+00  0.00000000E+00
  0.00000000E+00  0.00000000E+00  0.00000000E+00
  0.00000000E+00  0.00000000E+00  0.00000000E+00
  0.00000000E+00  0.00000000E+00  0.00000000E+00
  0.00000000E+00  0.00000000E+00  0.00000000E+00
  0.00000000E+00  0.00000000E+00  0.00000000E+00
  0.00000000E+00  0.00000000E+00  0.00000000E+00
  0.00000000E+00  0.00000000E+00  0.00000000E+00
  0.00000000E+00  0.00000000E+00  0.00000000E+00
  0.00000000E+00  0.00000000E+00  0.00000000E+00
  0.00000000E+00  0.00000000E+00  0.00000000E+00
  0.00000000E+00  0.00000000E+00  0.00000000E+00
  0.00000000E+00  0.00000000E+00  0.00000000E+00
  0.00000000E+00  0.00000000E+00  0.00000000E+00
  0.00000000E+00  0.00000000E+00  0.00000000E+00
  0.00000000E+00  0.00000000E+00  0.00000000E+00
  0.00000000E+00  0.00000000E+00  0.00000000E+00
  0.00000000E+00  0.00000000E+00  0.00000000E+00
  0.00000000E+00  0.00000000E+00  0.00000000E+00
  0.00000000E+00  0.00000000E+00  0.00000000E+00
  0.00000000E+00  0.00000000E+00  0.00000000E+00
  0.00000000E+00  0.00000000E+00  0.00000000E+00
  0.00000000E+00  0.00000000E+00  0.00000000E+00
  0.00000000E+00  0.00000000E+00  0.00000000E+00
  0.00000000E+00  0.00000000E+00  0.00000000E+00
  0.00000000E+00  0.00000000E+00  0.00000000E+00
  0.00000000E+00  0.00000000E+00  0.00000000E+00
  0.00000000E+00  0.00000000E+00  0.00000000E+00
  0.00000000E+00  0.00000000E+00  0.00000000E+00
  0.00000000E+00  0.00000000E+00  0.00000000E+00
  0.00000000E+00  0.00000000E+00  0.00000000E+00
  0.00000000E+00  0.00000000E+00  0.00000000E+00
  0.00000000E+00  0.00000000E+00  0.00000000E+00
  0.00000000E+00  0.00000000E+00  0.00000000E+00
  0.00000000E+00  0.00000000E+00  0.00000000E+00
  0.00000000E+00  0.00000000E+00  0.00000000E+00
  0.00000000E+00  0.00000000E+00  0.00000000E+00
  0.00000000E+00  0.00000000E+00  0.00000000E+00
  0.00000000E+00  0.00000000E+00  0.00000000E+00
  0.00000000E+00  0.00000000E+00  0.00000000E+00
  0.00000000E+00  0.00000000E+00  0.00000000E+00
  0.00000000E+00  0.00000000E+00  0.00000000E+00
  0.00000000E+00  0.00000000E+00  0.00000000E+00
  0.00000000E+00  0.00000000E+00  0.00000000E+00
  0.00000000E+00  0.00000000E+00  0.00000000E+00
  0.00000000E+00  0.00000000E+00  0.00000000E+00
  0.00000000E+00  0.00000000E+00  0.00000000E+00
  0.00000000E+00  0.00000000E+00  0.00000000E+00
  0.00000000E+00  0.00000000E+00  0.00000000E+00
  0.00000000E+00  0.00000000E+00  0.00000000E+00
  0.00000000E+00  0.00000000E+00  0.00000000E+00
  0.00000000E+00  0.00000000E+00  0.00000000E+00
  0.00000000E+00  0.00000000E+00  0.00000000E+00
  0.00000000E+00  0.00000000E+00  0.00000000E+00
  0.00000000E+00  0.00000000E+00  0.00000000E+00
  0.00000000E+00  0.00000000E+00  0.00000000E+00
  0.00000000E+00  0.00000000E+00  0.00000000E+00
  0.00000000E+00  0.00000000E+00  0.00000000E+00
  0.00000000E+00  0.00000000E+00  0.00000000E+00
  0.00000000E+00  0.00000000E+00  0.00000000E+00
  0.00000000E+00  0.00000000E+00  0.00000000E+00
  0.00000000E+00  0.00000000E+00  0.00000000E+00
  0.00000000E+00  0.00000000E+00  0.00000000E+00
  0.00000000E+00  0.00000000E+00  0.00000000E+00
  0.00000000E+00  0.00000000E+00  0.00000000E+00
  0.00000000E+00  0.00000000E+00  0.00000000E+00
  0.00000000E+00  0.00000000E+00  0.00000000E+00
  0.00000000E+00  0.00000000E+00  0.00000000E+00
  0.00000000E+00  0.00000000E+00  0.00000000E+00
  0.00000000E+00  0.00000000E+00  0.00000000E+00
  0.00000000E+00  0.00000000E+00  0.00000000E+00
  0.00000000E+00  0.00000000E+00  0.00000000E+00
  0.00000000E+00  0.00000000E+00  0.00000000E+00
  0.00000000E+00  0.00000000E+00  0.00000000E+00
  0.00000000E+00  0.00000000E+00  0.00000000E+00
  0.00000000E+00  0.00000000E+00  0.00000000E+00
  0.00000000E+00  0.00000000E+00  0.00000000E+00
  0.00000000E+00  0.00000000E+00  0.00000000E+00
  0.00000000E+00  0.00000000E+00  0.00000000E+00
  0.00000000E+00  0.00000000E+00  0.00000000E+00
  0.00000000E+00  0.00000000E+00  0.00000000E+00
  0.00000000E+00  0.00000000E+00  0.00000000E+00
  0.00000000E+00  0.00000000E+00  0.00000000E+00
  0.00000000E+00  0.00000000E+00  0.00000000E+00
  0.00000000E+00  0.00000000E+00  0.00000000E+00
  0.00000000E+00  0.00000000E+00  0.00000000E+00
  0.00000000E+00  0.00000000E+00  0.00000000E+00
  0.00000000E+00  0.00000000E+00  0.00000000E+00
  0.00000000E+00  0.00000000E+00  0.00000000E+00
  0.00000000E+00  0.00000000E+00  0.00000000E+00
  0.00000000E+00  0.00000000E+00  0.00000000E+00
  0.00000000E+00  0.00000000E+00  0.00000000E+00
  0.00000000E+00  0.00000000E+00  0.00000000E+00
  0.00000000E+00  0.00000000E+00  0.00000000E+00
  0.00000000E+00  0.00000000E+00  0.00000000E+00
  0.00000000E+00  0.00000000E+00  0.00000000E+00
  0.00000000E+00  0.00000000E+00  0.00000000E+00
  0.00000000E+00  0.00000000E+00  0.00000000E+00
  0.00000000E+00  0.00000000E+00  0.00000000E+00
  0.00000000E+00  0.00000000E+00  0.00000000E+00
  0.00000000E+00  0.00000000E+00  0.00000000E+00
  0.00000000E+00  0.00000000E+00  0.00000000E+00
  0.00000000E+00  0.00000000E+00  0.00000000E+00
  0.00000000E+00  0.00000000E+00  0.00000000E+00
  0.00000000E+00  0.00000000E+00  0.00000000E+00
  0.00000000E+00  0.00000000E+00  0.00000000E+00
  0.00000000E+00  0.00000000E+00  0.00000000E+00
  0.00000000E+00  0.00000000E+00  0.00000000E+00
  0.00000000E+00  0.00000000E+00  0.00000000E+00
  0.00000000E+00  0.00000000E+00  0.00000000E+00
  0.00000000E+00  0.00000000E+00  0.00000000E+00
  0.00000000E+00  0.00000000E+00  0.00000000E+00
  0.00000000E+00  0.00000000E+00  0.00000000E+00
  0.00000000E+00  0.00000000E+00  0.00000000E+00
  0.00000000E+00  0.00000000E+00  0.00000000E+00
  0.00000000E+00  0.00000000E+00  0.00000000E+00
  0.00000000E+00  0.00000000E+00  0.00000000E+00
  0.00000000E+00  0.00000000E+00  0.00000000E+00
  0.00000000E+00  0.00000000E+00  0.00000000E+00
  0.00000000E+00  0.00000000E+00  0.00000000E+00
  0.00000000E+00  0.00000000E+00  0.00000000E+00
  0.00000000E+00  0.00000000E+00  0.00000000E+00
  0.00000000E+00  0.00000000E+00  0.00000000E+00
  0.00000000E+00  0.00000000E+00  0.00000000E+00
  0.00000000E+00  0.00000000E+00  0.00000000E+00
  0.00000000E+00  0.00000000E+00  0.00000000E+00
  0.00000000E+00  0.00000000E+00  0.00000000E+00
  0.00000000E+00  0.00000000E+00  0.00000000E+00
  0.00000000E+00  0.00000000E+00  0.00000000E+00
  0.00000000E+00  0.00000000E+00  0.00000000E+00
  0.00000000E+00  0.00000000E+00  0.00000000E+00
  0.00000000E+00  0.00000000E+00  0.00000000E+00
  0.00000000E+00  0.00000000E+00  0.00000000E+00
  0.00000000E+00  0.00000000E+00  0.00000000E+00
  0.00000000E+00  0.00000000E+00  0.00000000E+00
  0.00000000E+00  0.00000000E+00  0.00000000E+00
  0.00000000E+00  0.00000000E+00  0.00000000E+00
  0.00000000E+00  0.00000000E+00  0.00000000E+00
  0.00000000E+00  0.00000000E+00  0.00000000E+00
  0.00000000E+00  0.00000000E+00  0.00000000E+00
  0.00000000E+00  0.00000000E+00  0.00000000E+00
  0.00000000E+00  0.00000000E+00  0.00000000E+00
  0.00000000E+00  0.00000000E+00  0.00000000E+00
  0.00000000E+00  0.00000000E+00  0.00000000E+00
  0.00000000E+00  0.00000000E+00  0.00000000E+00
  0.00000000E+00  0.00000000E+00  0.00000000E+00
  0.00000000E+00  0.00000000E+00  0.00000000E+00
  0.00000000E+00  0.00000000E+00  0.00000000E+00
  0.00000000E+00  0.00000000E+00  0.00000000E+00
  0.00000000E+00  0.00000000E+00  0.00000000E+00
  0.00000000E+00  0.00000000E+00  0.00000000E+00
  0.00000000E+00  0.00000000E+00  0.00000000E+00
  0.00000000E+00  0.00000000E+00  0.00000000E+00
