Hf  O  F  H                             
   1.00000000000000     
    13.7225301000000002    0.0000000000000000    0.0000000000000000
     0.0000000000000000   13.7225301000000002    0.0000000000000000
     0.0000000000000000    0.0000000000000000   32.7225301000000002
   Hf   O    F    H 
    72   144    16    16
Direct
  0.1495115528591371  0.8454254897316823  0.4136599833333272
  0.8578446200824151  0.9426195976974584  0.5051444198933436
  0.0169731060005959  0.6246948042575162  0.3942050013974964
  0.8702383489854479  0.6324198405506694  0.3015469198045605
  0.0670053956864068  0.7778999703098692  0.3135864767699908
  0.4069931185749265  0.9439797166840277  0.5597126766990291
  0.6346046211421830  0.5071275749920386  0.2750890092996725
  0.6798794059717497  0.7453560064726126  0.2756123345501646
  0.0250755354517898  0.6451927858067034  0.6649101755895895
  0.2839273182487381  0.0473756798834433  0.4120445885045262
  0.9278593765383673  0.7363301066653838  0.4688361141471744
  0.2861976768158048  0.7510547650722073  0.3085289305230196
  0.1043677171553720  0.5206214147008688  0.3141980716267426
  0.3398367192400939  0.1592999202696262  0.5226257087748909
  0.5390042554829053  0.9838204243227822  0.6717336629103329
  0.2751779283615495  0.6185403156945872  0.6574697962809631
  0.5515411520572857  0.3603357709146849  0.5341155224670447
  0.4681888589093517  0.9792479290907261  0.3244979542490079
  0.2947902227325229  0.6314841641306911  0.3983471555665269
  0.8987848839878739  0.7185997767762327  0.5672350478947896
  0.8393818318478360  0.4201623324961706  0.3144538912882908
  0.9098574857245699  0.0972563196766107  0.5750235662770667
  0.0086509159633888  0.3486850461677499  0.3900294555155011
  0.9124861248172530  0.4917686160587538  0.5926799377661208
  0.1378086479672738  0.5354268719144469  0.5838017441227786
  0.1741104304870230  0.2384271033268109  0.4447723096477144
  0.1098776732907655  0.2822514541479496  0.5435204406084174
  0.7439088646498222  0.5528520108056592  0.5120470394031361
  0.3421207468468209  0.1415771801207803  0.6365587109441393
  0.6554797979978425  0.1558621827662199  0.6124588095670307
  0.5233242140286396  0.3124470706801825  0.6808928433956787
  0.2649190376520387  0.4389585898272498  0.4909499145389637
  0.3040434354331926  0.3504387840856353  0.6035804084786229
  0.8605024707327420  0.9689157774787648  0.4074440635719984
  0.1599537582587894  0.0331384575778256  0.5061761550129045
  0.7855312287184201  0.7089228848264723  0.6644119333560410
  0.4926115754260845  0.6362431490727039  0.3455291282455863
  0.0118322923149931  0.4656861520005624  0.4982407218586430
  0.8776497663030525  0.9137529932553444  0.2996069236047263
  0.4187259227314986  0.8101237964222132  0.4425003123264040
  0.4220690438613678  0.3205275562956459  0.4443865550383210
  0.5873543857313375  0.8083378872606274  0.5073228556856340
  0.3521213320853048  0.7178942877159951  0.5476532715390531
  0.1449505044981139  0.8156170794716714  0.5778781631567854
  0.6771603123999885  0.2241308303995232  0.4300410206109481
  0.5635180501404069 -0.0044868359323275  0.4161557831194359
  0.2975960075668286  0.9045472216717177  0.6492778678014670
  0.4817552044764356  0.5508799711975746  0.4765054343218704
  0.5879529239043422  0.1415357044339367  0.5178752145920459
  0.0644325057059983  0.0335992871385966  0.3621674378970980
  0.8045815911776081  0.4116160021762640  0.4310246941152487
  0.6987322777150171  0.9244759531079703  0.5808439691741755
  0.4810144380162353  0.7512452249488085  0.6497962829881927
  0.6781238782487112  0.8393899011463185  0.3636048402132315
  0.2591871149924513  0.9872039158156463  0.3076862776999982
  0.4428300859894144  0.5501352245818475  0.5941865040266714
  0.6535314589522833  0.2778452647408278  0.2882360156613227
  0.6517054842989830  0.6728657550964001  0.5909681968917080
  0.0057392733511104  0.9020002861780688  0.6496270766833652
  0.7455722283199430  0.6284550744665507  0.3914464160747274
  0.2883751002981659  0.4075876978821341  0.3655659362497082
  0.6944402952144990  0.0384085832092925  0.2668998017482311
  0.5636676637045576  0.4194859005667340  0.3713887347714348
  0.4342655169611040  0.2056336795462870  0.3615685332361934
  0.6791520779748300  0.4522408515646891  0.6239162111167552
  0.1639459971903015  0.6618650243632741  0.4772425826843141
  0.8442167720601335  0.2907871280617714  0.6460189105458458
  0.8542586470086768  0.1877782341497272  0.3411291021571924
  0.0821292557277389  0.1775951988622358  0.6330251896470090
  0.8100995401031776  0.3257714178267624  0.5311510844164451
  0.9350161714523815  0.1784472826302853  0.4784361105671636
  0.1611637830921269  0.2368626078050031  0.3336368757506218
  0.3047796333458355  0.2662557680539397  0.3343882894431703
  0.9322874411840182  0.8228951320254282  0.5214646440289616
  0.3613146538047621  0.8749626686531787  0.3234929114313433
  0.5528075390032158  0.8822336178038208  0.4564764884028990
  0.0492531753748671  0.4243967970909368  0.5595230316200190
  0.0417910359677670  0.4886331702530234  0.3699543771507514
  0.0003906933522418  0.0487774254913487  0.6218471646098789
  0.3069273299963073  0.5804837069824501  0.4622838432947500
  0.1863091714548734  0.9604542149497369  0.4498972651550122
  0.0081007791263709  0.2398316966623789  0.3411635508201857
  0.3752888475107622  0.0281525401378875  0.2787072357770049
  0.1260369921832701  0.9204664255692673  0.5406641362226570
  0.4538239171480398  0.8931527749007370  0.6311441091793778
  0.7041931404103029  0.9611414096913821  0.4020626616429375
  0.3022837701074859  0.0068801517492490  0.5242403306932329
  0.6338310049335760  0.2631946951678717  0.7239352372279311
  0.0296510190192378  0.7824565858948370  0.6799882784928913
  0.7570851714431783  0.5548639094593879  0.4435230653862571
  0.8765387956409741  0.3425107919148175  0.5863338621421140
  0.3510472125703717  0.2143985233704968  0.5810546169996917
  0.8366403971341730  0.9694726940422640  0.5683313904338705
  0.2706493448959955  0.7667177326857274  0.4441503045828786
  0.0188843169912010  0.9298306810477155  0.3181408349882458
  0.7166872678861299  0.8898960745685200  0.5156248106351132
  0.3948737793523235  0.5387771289611267  0.3738012578635198
  0.9356918086425220  0.7735335081469737  0.2839298634871950
  0.8173293282563541  0.2642678668203053  0.4504302620424495
  0.0737097144689540  0.7778862079139603  0.4603174390941426
  0.1427542473538798  0.6640610356107181  0.6202679382101114
  0.8668212607939226  0.3435069562932959  0.3691520542555505
  0.5030332466977895  0.6993733052784190  0.4695148456853431
  0.7799956266596070  0.5795662703739181  0.5736677558986339
  0.1987889165042583  0.1560483672772199  0.5433791952999727
  0.5471149680379552  0.2773748371563648  0.3285965766712276
  0.9621282421046603  0.4871371641002940  0.2915826756218233
  0.6503980504493826  0.6834349309146847  0.5273851573831304
  0.5346684380296262  0.2485377165708871  0.4135639330673227
  0.0026101287786651  0.6103847373790598  0.5597740986981451
  0.9605958636128832  0.3117944137032566  0.5083781670087527
  0.4696129925427917  0.2412750088106256  0.5009859766753707
  0.4166031465190246  0.4201264524481567  0.4964122271633377
  0.8883449160079688  0.6809419185374740  0.4120966422585957
  0.4256743133344121  0.7181579936805391  0.3938834119207974
  0.5553317706046288  0.1501612271726363  0.6654404947446307
  0.7836190194045831  0.5284670371004059  0.2745176264860207
  0.8624439081699745  0.8630789195986367  0.4501108689916323
  0.5813040031078787  0.2339478644329725  0.5696932848901340
  0.6509462016207193  0.2699559506374936  0.4965131682061099
  0.8067768663385935  0.1612778996058353  0.6151073602292108
  0.1878063445818212  0.8578663738147072  0.2883533627553566
  0.3445972846340782  0.0671966671872846  0.3529823157957420
  0.7069845910463366  0.5974823380403387  0.6448995116202011
  0.3073034475519534  0.6269750185690881  0.5926366556423430
  0.5254190817656154  0.5055313310703367  0.3149849706136452
  0.8705471508807299  0.9307938138290532  0.6857608984079925
  0.2086056234453428  0.7249214022163392  0.5312926947517261
  0.4667576615574843  0.0692578530124692  0.5357091542696786
  0.1282468855086648  0.3674067053490315  0.4808473457185386
  0.1966541364485031  0.9514379198403665  0.3699132869455162
  0.6283095515836634  0.7605234857308859  0.6418670216596801
  0.6682293624885155  0.0679462519005000  0.5600710591108032
  0.2241150422838853  0.5387570163231752  0.3530330556506916
  0.3999791507976311  0.6685897222383830  0.3015419847669297
  0.4396855639474508  0.4045596511044234  0.5796986253805074
  0.0184929552493845  0.9440317824531470  0.4066134560549731
  0.9681842311323702  0.0469359599309100  0.5185898770055147
  0.2514374312114649  0.4800599447790137  0.6268192895495830
  0.5847037734789839  0.9661277375137797  0.2894291612912825
  0.8065663880566265  0.2785582851454059  0.2944287497923944
  0.0158827402716064  0.6048500604999795  0.4681343622702511
  0.0138045439126586  0.2397498207576671  0.4289921794051539
  0.4900615271792663  0.7080424337931325  0.5881004316159820
  0.4253178335927479  0.3565150833936721  0.3754515305445098
  0.2566615285121566  0.1182228674995713  0.4666251962533666
  0.8355788368486486  0.1797694397725682  0.5295156221467555
  0.1668011014217424  0.2857145755902259  0.6054037530227488
  0.0189815304479670  0.1987041035779897  0.5757077165124763
  0.9006011923109246  0.6576704402250636  0.6264952380623612
  0.7531739056759762  0.8787892177761492  0.2672299223520805
  0.7662502910359016  0.7787212007211012  0.5901101283074496
  0.5030773192906491  0.1087473344143878  0.6287268032621751
  0.8417870931507326  0.6671420718097110  0.5080988483433300
  0.3065548889671574  0.8352454178873813  0.5837939111822609
  0.3886403251037894  0.0311587984472469  0.6824915646636492
  0.3513376858331804  0.1976177080146400  0.4136987809034069
  0.6170900514464446  0.0975909241535910  0.4578378911644622
  0.1559333365787935  0.5385454814508631  0.5137464187663080
  0.5095129873035178  0.4478090869349718  0.4314968465418129
  0.1595753222880759  0.3827146309740684  0.3115907466373374
  0.5416563612368278  0.8948395018608115  0.3701222230243147
  0.8343076796619221  0.5417507670375834  0.3539533284974895
  0.5869811600366058  0.5398145954080135  0.5889452524743979
  0.0040126135383985  0.6405093440508139  0.3308394776700886
  0.6885173100383927  0.3914930797619746  0.5638759914853160
  0.2389749403929565  0.7472102157003739  0.3650711919155787
  0.8804331623423099  0.4761143069565488  0.5287365208019900
  0.8530258142339702  0.0550112012220991  0.4568169002058979
  0.3321166353016102  0.0161409102160991  0.6058077291563350
  0.6872097936227027  0.4131998079294912  0.3211991544748498
  0.7457200129572590  0.1740562928982154  0.3788027746424267
  0.5241130871632593  0.0825701005147561  0.3666564017860479
  0.0018025203922339  0.8130488284331244  0.5955856711671901
  0.3910272528120194  0.2828033991128259  0.6532457018835827
  0.4000801256463089  0.9576928500670822  0.4251089448899179
  0.6142910537784125  0.5663772042226555  0.3777980650424616
  0.6481119667529096  0.1661231968459735  0.2504350510795343
  0.6859091256790050  0.7530021537286878  0.4087628552968889
  0.8248626305843347  0.8886965290562462  0.3533824528363720
  0.9514542192983455  0.4341690430231114  0.4384103732766461
  0.8484043760103969  0.8591014591145720  0.6531310786622272
  0.5940049527472554  0.4961483606692682  0.5073163635899705
  0.0341895145336112  0.5110425536516211  0.6284101260831237
  0.4321532460596655  0.6078880685230985  0.6521686243706978
  0.6246648209452667  0.6368703389182699  0.2453672865272112
  0.5597623229315679  0.4359386014627371  0.6587181814342836
  0.5882198025631514  0.7485056008872802  0.3235041984727006
  0.7637894060741945  0.7131160503238975  0.3304332080058390
  0.6816346366628352  0.3647735992565006  0.4034219171761064
  0.7567578493544591  0.4154270622960144  0.4870896455647359
  0.2932832163203105  0.4024339437483103  0.4280887660561771
  0.8925328021817961  0.6369413297483847  0.7005223733465208
  0.5144624259952804  0.8457883500913909  0.7003670929280535
  0.8290408473062492  0.0580706800366071  0.2946040004983679
  0.1599619635574777  0.1371162174348298  0.3913160346793951
  0.2091463227494243  0.1338165600517312  0.6569996082552347
  0.5610234036481241  0.8871922835560365  0.5594512343738878
  0.1601350148496451  0.3236722808876317  0.3875308440284602
  0.0863619550376581  0.1690685805605978  0.4880682514822092
  0.2399327342359636  0.3957939441985600  0.5506037585279563
  0.9836223240899762  0.2577302152102241  0.6609429078164154
  0.0543524448076659  0.7693074851795785  0.3753574649141520
  0.9219634556548165  0.0732585629526457  0.3684393366099877
  0.6560542573632177  0.9965667113292849  0.6334857760683542
  0.4181554180282401  0.5892752259313200  0.5327735552792785
  0.8224285839793992  0.4403723576912580  0.6430507279478784
  0.1524336069173202  0.6202106169019105  0.4174816008270010
  0.4193446157337106  0.8288834132359463  0.5134303115918875
  0.1515988190292159  0.6161361407494509  0.6970369833234580
  0.3261586694610956  0.7615079103534402  0.6626538694209014
  0.1600552913502485  0.6635332388878603  0.2921052625081570
  0.1516681174458548  0.0959828925453815  0.3113817501664489
  0.6808256326106785  0.2937221949009220  0.6406758064413537
  0.1576430900668131  0.8953189516392707  0.6303285832552323
  0.2902838564511174  0.2840898530400910  0.4856009406196144
  0.1806791029268081  0.6595183642637793  0.7740183008309143
  0.8181131870287562  0.6585021905603371  0.7771965200558497
  0.4639983398165259  0.3480432675961401  0.7313820697296320
  0.0048657056225176  0.4078636164824083  0.7120668196987298
  0.2531793882116162  0.9117551820135201  0.7075982403064279
  0.2693051645002612  0.8155792209119775  0.7692959423474789
  0.5983774037374802  0.0086431835082396  0.7241019932035306
  0.2715740329016967  0.2620745441935106  0.7720114137098563
  0.8877295761523936  0.8711155261111324  0.7584478559499881
  0.3170378830912171  0.5347902935239616  0.7064036110317113
  0.0476452072237220  0.9382573540384151  0.7662898247047901
  0.0610580230376198  0.9844029965012793  0.6970577164664394
  0.2411625731430485  0.3846239102152234  0.7217385047804009
  0.3783200333037540  0.1349773257559903  0.7484457183799211
  0.7343493273143726  0.7487971321292853  0.7187599314936892
  0.8075544033820254  0.2624324771244232  0.7045820534277120
  0.1627503584191042  0.6212701954320730  0.7271789891753445
  0.8839115405840552  0.6343557115985863  0.7304928126085208
  0.6193071719170790  0.2566856598694215  0.7528959723263513
  0.0081328366217750  0.3499354706006744  0.6954273999121345
  0.2595935387355027  0.8553979001927685  0.7442010175388717
  0.2139038428477621  0.7229806686554969  0.7731743460696461
  0.5526325232463022  0.8339321303890720  0.7249987337836645
  0.3327937485717990  0.1870884228715530  0.7583833860329594
  0.8699852673032161  0.8965270034541389  0.7137807030617821
  0.2762999402339622  0.4498743774980221  0.7172937128955370
  0.9553038033587484  0.8966177568976685  0.7647181852965514
  0.0595255089065586  0.9603261137314840  0.7367083474830576
  0.2624163848389566  0.3169565467001911  0.7518589331053719
  0.3706525197781393  0.0520668477731959  0.7107815033977070
  0.7799493517408761  0.7034826197076582  0.7612092488587637
  0.7075311728339690  0.2598813687102235  0.7184356879277302
 
  0.00000000E+00  0.00000000E+00  0.00000000E+00
  0.00000000E+00  0.00000000E+00  0.00000000E+00
  0.00000000E+00  0.00000000E+00  0.00000000E+00
  0.00000000E+00  0.00000000E+00  0.00000000E+00
  0.00000000E+00  0.00000000E+00  0.00000000E+00
  0.00000000E+00  0.00000000E+00  0.00000000E+00
  0.00000000E+00  0.00000000E+00  0.00000000E+00
  0.00000000E+00  0.00000000E+00  0.00000000E+00
  0.00000000E+00  0.00000000E+00  0.00000000E+00
  0.00000000E+00  0.00000000E+00  0.00000000E+00
  0.00000000E+00  0.00000000E+00  0.00000000E+00
  0.00000000E+00  0.00000000E+00  0.00000000E+00
  0.00000000E+00  0.00000000E+00  0.00000000E+00
  0.00000000E+00  0.00000000E+00  0.00000000E+00
  0.00000000E+00  0.00000000E+00  0.00000000E+00
  0.00000000E+00  0.00000000E+00  0.00000000E+00
  0.00000000E+00  0.00000000E+00  0.00000000E+00
  0.00000000E+00  0.00000000E+00  0.00000000E+00
  0.00000000E+00  0.00000000E+00  0.00000000E+00
  0.00000000E+00  0.00000000E+00  0.00000000E+00
  0.00000000E+00  0.00000000E+00  0.00000000E+00
  0.00000000E+00  0.00000000E+00  0.00000000E+00
  0.00000000E+00  0.00000000E+00  0.00000000E+00
  0.00000000E+00  0.00000000E+00  0.00000000E+00
  0.00000000E+00  0.00000000E+00  0.00000000E+00
  0.00000000E+00  0.00000000E+00  0.00000000E+00
  0.00000000E+00  0.00000000E+00  0.00000000E+00
  0.00000000E+00  0.00000000E+00  0.00000000E+00
  0.00000000E+00  0.00000000E+00  0.00000000E+00
  0.00000000E+00  0.00000000E+00  0.00000000E+00
  0.00000000E+00  0.00000000E+00  0.00000000E+00
  0.00000000E+00  0.00000000E+00  0.00000000E+00
  0.00000000E+00  0.00000000E+00  0.00000000E+00
  0.00000000E+00  0.00000000E+00  0.00000000E+00
  0.00000000E+00  0.00000000E+00  0.00000000E+00
  0.00000000E+00  0.00000000E+00  0.00000000E+00
  0.00000000E+00  0.00000000E+00  0.00000000E+00
  0.00000000E+00  0.00000000E+00  0.00000000E+00
  0.00000000E+00  0.00000000E+00  0.00000000E+00
  0.00000000E+00  0.00000000E+00  0.00000000E+00
  0.00000000E+00  0.00000000E+00  0.00000000E+00
  0.00000000E+00  0.00000000E+00  0.00000000E+00
  0.00000000E+00  0.00000000E+00  0.00000000E+00
  0.00000000E+00  0.00000000E+00  0.00000000E+00
  0.00000000E+00  0.00000000E+00  0.00000000E+00
  0.00000000E+00  0.00000000E+00  0.00000000E+00
  0.00000000E+00  0.00000000E+00  0.00000000E+00
  0.00000000E+00  0.00000000E+00  0.00000000E+00
  0.00000000E+00  0.00000000E+00  0.00000000E+00
  0.00000000E+00  0.00000000E+00  0.00000000E+00
  0.00000000E+00  0.00000000E+00  0.00000000E+00
  0.00000000E+00  0.00000000E+00  0.00000000E+00
  0.00000000E+00  0.00000000E+00  0.00000000E+00
  0.00000000E+00  0.00000000E+00  0.00000000E+00
  0.00000000E+00  0.00000000E+00  0.00000000E+00
  0.00000000E+00  0.00000000E+00  0.00000000E+00
  0.00000000E+00  0.00000000E+00  0.00000000E+00
  0.00000000E+00  0.00000000E+00  0.00000000E+00
  0.00000000E+00  0.00000000E+00  0.00000000E+00
  0.00000000E+00  0.00000000E+00  0.00000000E+00
  0.00000000E+00  0.00000000E+00  0.00000000E+00
  0.00000000E+00  0.00000000E+00  0.00000000E+00
  0.00000000E+00  0.00000000E+00  0.00000000E+00
  0.00000000E+00  0.00000000E+00  0.00000000E+00
  0.00000000E+00  0.00000000E+00  0.00000000E+00
  0.00000000E+00  0.00000000E+00  0.00000000E+00
  0.00000000E+00  0.00000000E+00  0.00000000E+00
  0.00000000E+00  0.00000000E+00  0.00000000E+00
  0.00000000E+00  0.00000000E+00  0.00000000E+00
  0.00000000E+00  0.00000000E+00  0.00000000E+00
  0.00000000E+00  0.00000000E+00  0.00000000E+00
  0.00000000E+00  0.00000000E+00  0.00000000E+00
  0.00000000E+00  0.00000000E+00  0.00000000E+00
  0.00000000E+00  0.00000000E+00  0.00000000E+00
  0.00000000E+00  0.00000000E+00  0.00000000E+00
  0.00000000E+00  0.00000000E+00  0.00000000E+00
  0.00000000E+00  0.00000000E+00  0.00000000E+00
  0.00000000E+00  0.00000000E+00  0.00000000E+00
  0.00000000E+00  0.00000000E+00  0.00000000E+00
  0.00000000E+00  0.00000000E+00  0.00000000E+00
  0.00000000E+00  0.00000000E+00  0.00000000E+00
  0.00000000E+00  0.00000000E+00  0.00000000E+00
  0.00000000E+00  0.00000000E+00  0.00000000E+00
  0.00000000E+00  0.00000000E+00  0.00000000E+00
  0.00000000E+00  0.00000000E+00  0.00000000E+00
  0.00000000E+00  0.00000000E+00  0.00000000E+00
  0.00000000E+00  0.00000000E+00  0.00000000E+00
  0.00000000E+00  0.00000000E+00  0.00000000E+00
  0.00000000E+00  0.00000000E+00  0.00000000E+00
  0.00000000E+00  0.00000000E+00  0.00000000E+00
  0.00000000E+00  0.00000000E+00  0.00000000E+00
  0.00000000E+00  0.00000000E+00  0.00000000E+00
  0.00000000E+00  0.00000000E+00  0.00000000E+00
  0.00000000E+00  0.00000000E+00  0.00000000E+00
  0.00000000E+00  0.00000000E+00  0.00000000E+00
  0.00000000E+00  0.00000000E+00  0.00000000E+00
  0.00000000E+00  0.00000000E+00  0.00000000E+00
  0.00000000E+00  0.00000000E+00  0.00000000E+00
  0.00000000E+00  0.00000000E+00  0.00000000E+00
  0.00000000E+00  0.00000000E+00  0.00000000E+00
  0.00000000E+00  0.00000000E+00  0.00000000E+00
  0.00000000E+00  0.00000000E+00  0.00000000E+00
  0.00000000E+00  0.00000000E+00  0.00000000E+00
  0.00000000E+00  0.00000000E+00  0.00000000E+00
  0.00000000E+00  0.00000000E+00  0.00000000E+00
  0.00000000E+00  0.00000000E+00  0.00000000E+00
  0.00000000E+00  0.00000000E+00  0.00000000E+00
  0.00000000E+00  0.00000000E+00  0.00000000E+00
  0.00000000E+00  0.00000000E+00  0.00000000E+00
  0.00000000E+00  0.00000000E+00  0.00000000E+00
  0.00000000E+00  0.00000000E+00  0.00000000E+00
  0.00000000E+00  0.00000000E+00  0.00000000E+00
  0.00000000E+00  0.00000000E+00  0.00000000E+00
  0.00000000E+00  0.00000000E+00  0.00000000E+00
  0.00000000E+00  0.00000000E+00  0.00000000E+00
  0.00000000E+00  0.00000000E+00  0.00000000E+00
  0.00000000E+00  0.00000000E+00  0.00000000E+00
  0.00000000E+00  0.00000000E+00  0.00000000E+00
  0.00000000E+00  0.00000000E+00  0.00000000E+00
  0.00000000E+00  0.00000000E+00  0.00000000E+00
  0.00000000E+00  0.00000000E+00  0.00000000E+00
  0.00000000E+00  0.00000000E+00  0.00000000E+00
  0.00000000E+00  0.00000000E+00  0.00000000E+00
  0.00000000E+00  0.00000000E+00  0.00000000E+00
  0.00000000E+00  0.00000000E+00  0.00000000E+00
  0.00000000E+00  0.00000000E+00  0.00000000E+00
  0.00000000E+00  0.00000000E+00  0.00000000E+00
  0.00000000E+00  0.00000000E+00  0.00000000E+00
  0.00000000E+00  0.00000000E+00  0.00000000E+00
  0.00000000E+00  0.00000000E+00  0.00000000E+00
  0.00000000E+00  0.00000000E+00  0.00000000E+00
  0.00000000E+00  0.00000000E+00  0.00000000E+00
  0.00000000E+00  0.00000000E+00  0.00000000E+00
  0.00000000E+00  0.00000000E+00  0.00000000E+00
  0.00000000E+00  0.00000000E+00  0.00000000E+00
  0.00000000E+00  0.00000000E+00  0.00000000E+00
  0.00000000E+00  0.00000000E+00  0.00000000E+00
  0.00000000E+00  0.00000000E+00  0.00000000E+00
  0.00000000E+00  0.00000000E+00  0.00000000E+00
  0.00000000E+00  0.00000000E+00  0.00000000E+00
  0.00000000E+00  0.00000000E+00  0.00000000E+00
  0.00000000E+00  0.00000000E+00  0.00000000E+00
  0.00000000E+00  0.00000000E+00  0.00000000E+00
  0.00000000E+00  0.00000000E+00  0.00000000E+00
  0.00000000E+00  0.00000000E+00  0.00000000E+00
  0.00000000E+00  0.00000000E+00  0.00000000E+00
  0.00000000E+00  0.00000000E+00  0.00000000E+00
  0.00000000E+00  0.00000000E+00  0.00000000E+00
  0.00000000E+00  0.00000000E+00  0.00000000E+00
  0.00000000E+00  0.00000000E+00  0.00000000E+00
  0.00000000E+00  0.00000000E+00  0.00000000E+00
  0.00000000E+00  0.00000000E+00  0.00000000E+00
  0.00000000E+00  0.00000000E+00  0.00000000E+00
  0.00000000E+00  0.00000000E+00  0.00000000E+00
  0.00000000E+00  0.00000000E+00  0.00000000E+00
  0.00000000E+00  0.00000000E+00  0.00000000E+00
  0.00000000E+00  0.00000000E+00  0.00000000E+00
  0.00000000E+00  0.00000000E+00  0.00000000E+00
  0.00000000E+00  0.00000000E+00  0.00000000E+00
  0.00000000E+00  0.00000000E+00  0.00000000E+00
  0.00000000E+00  0.00000000E+00  0.00000000E+00
  0.00000000E+00  0.00000000E+00  0.00000000E+00
  0.00000000E+00  0.00000000E+00  0.00000000E+00
  0.00000000E+00  0.00000000E+00  0.00000000E+00
  0.00000000E+00  0.00000000E+00  0.00000000E+00
  0.00000000E+00  0.00000000E+00  0.00000000E+00
  0.00000000E+00  0.00000000E+00  0.00000000E+00
  0.00000000E+00  0.00000000E+00  0.00000000E+00
  0.00000000E+00  0.00000000E+00  0.00000000E+00
  0.00000000E+00  0.00000000E+00  0.00000000E+00
  0.00000000E+00  0.00000000E+00  0.00000000E+00
  0.00000000E+00  0.00000000E+00  0.00000000E+00
  0.00000000E+00  0.00000000E+00  0.00000000E+00
  0.00000000E+00  0.00000000E+00  0.00000000E+00
  0.00000000E+00  0.00000000E+00  0.00000000E+00
  0.00000000E+00  0.00000000E+00  0.00000000E+00
  0.00000000E+00  0.00000000E+00  0.00000000E+00
  0.00000000E+00  0.00000000E+00  0.00000000E+00
  0.00000000E+00  0.00000000E+00  0.00000000E+00
  0.00000000E+00  0.00000000E+00  0.00000000E+00
  0.00000000E+00  0.00000000E+00  0.00000000E+00
  0.00000000E+00  0.00000000E+00  0.00000000E+00
  0.00000000E+00  0.00000000E+00  0.00000000E+00
  0.00000000E+00  0.00000000E+00  0.00000000E+00
  0.00000000E+00  0.00000000E+00  0.00000000E+00
  0.00000000E+00  0.00000000E+00  0.00000000E+00
  0.00000000E+00  0.00000000E+00  0.00000000E+00
  0.00000000E+00  0.00000000E+00  0.00000000E+00
  0.00000000E+00  0.00000000E+00  0.00000000E+00
  0.00000000E+00  0.00000000E+00  0.00000000E+00
  0.00000000E+00  0.00000000E+00  0.00000000E+00
  0.00000000E+00  0.00000000E+00  0.00000000E+00
  0.00000000E+00  0.00000000E+00  0.00000000E+00
  0.00000000E+00  0.00000000E+00  0.00000000E+00
  0.00000000E+00  0.00000000E+00  0.00000000E+00
  0.00000000E+00  0.00000000E+00  0.00000000E+00
  0.00000000E+00  0.00000000E+00  0.00000000E+00
  0.00000000E+00  0.00000000E+00  0.00000000E+00
  0.00000000E+00  0.00000000E+00  0.00000000E+00
  0.00000000E+00  0.00000000E+00  0.00000000E+00
  0.00000000E+00  0.00000000E+00  0.00000000E+00
  0.00000000E+00  0.00000000E+00  0.00000000E+00
  0.00000000E+00  0.00000000E+00  0.00000000E+00
  0.00000000E+00  0.00000000E+00  0.00000000E+00
  0.00000000E+00  0.00000000E+00  0.00000000E+00
  0.00000000E+00  0.00000000E+00  0.00000000E+00
  0.00000000E+00  0.00000000E+00  0.00000000E+00
  0.00000000E+00  0.00000000E+00  0.00000000E+00
  0.00000000E+00  0.00000000E+00  0.00000000E+00
  0.00000000E+00  0.00000000E+00  0.00000000E+00
  0.00000000E+00  0.00000000E+00  0.00000000E+00
  0.00000000E+00  0.00000000E+00  0.00000000E+00
  0.00000000E+00  0.00000000E+00  0.00000000E+00
  0.00000000E+00  0.00000000E+00  0.00000000E+00
  0.00000000E+00  0.00000000E+00  0.00000000E+00
  0.00000000E+00  0.00000000E+00  0.00000000E+00
  0.00000000E+00  0.00000000E+00  0.00000000E+00
  0.00000000E+00  0.00000000E+00  0.00000000E+00
  0.00000000E+00  0.00000000E+00  0.00000000E+00
  0.00000000E+00  0.00000000E+00  0.00000000E+00
  0.00000000E+00  0.00000000E+00  0.00000000E+00
  0.00000000E+00  0.00000000E+00  0.00000000E+00
  0.00000000E+00  0.00000000E+00  0.00000000E+00
  0.00000000E+00  0.00000000E+00  0.00000000E+00
  0.00000000E+00  0.00000000E+00  0.00000000E+00
  0.00000000E+00  0.00000000E+00  0.00000000E+00
  0.00000000E+00  0.00000000E+00  0.00000000E+00
  0.00000000E+00  0.00000000E+00  0.00000000E+00
  0.00000000E+00  0.00000000E+00  0.00000000E+00
  0.00000000E+00  0.00000000E+00  0.00000000E+00
  0.00000000E+00  0.00000000E+00  0.00000000E+00
  0.00000000E+00  0.00000000E+00  0.00000000E+00
  0.00000000E+00  0.00000000E+00  0.00000000E+00
  0.00000000E+00  0.00000000E+00  0.00000000E+00
  0.00000000E+00  0.00000000E+00  0.00000000E+00
  0.00000000E+00  0.00000000E+00  0.00000000E+00
  0.00000000E+00  0.00000000E+00  0.00000000E+00
  0.00000000E+00  0.00000000E+00  0.00000000E+00
  0.00000000E+00  0.00000000E+00  0.00000000E+00
  0.00000000E+00  0.00000000E+00  0.00000000E+00
  0.00000000E+00  0.00000000E+00  0.00000000E+00
  0.00000000E+00  0.00000000E+00  0.00000000E+00
  0.00000000E+00  0.00000000E+00  0.00000000E+00
  0.00000000E+00  0.00000000E+00  0.00000000E+00
  0.00000000E+00  0.00000000E+00  0.00000000E+00
  0.00000000E+00  0.00000000E+00  0.00000000E+00
  0.00000000E+00  0.00000000E+00  0.00000000E+00
  0.00000000E+00  0.00000000E+00  0.00000000E+00
