Hf  O  F  H                             
   1.00000000000000     
    13.7225301000000002    0.0000000000000000    0.0000000000000000
     0.0000000000000000   13.7225301000000002    0.0000000000000000
     0.0000000000000000    0.0000000000000000   32.7225301000000002
   Hf   O    F    H 
    72   144    32    32
Direct
  0.1299592643635790  0.8478072483847480  0.4058544078805633
  0.8686039919210183  0.9424043305242014  0.5028638422953505
  0.0158959694557469  0.6247811559577056  0.3776500735755279
  0.8164082034636458  0.6706864257745735  0.3057694466499080
  0.0581830086693120  0.7660938832842088  0.2990748722743955
  0.4138158556714980  0.9196124487650797  0.5524509540178870
  0.6622965198642856  0.5405981803429885  0.2664300127277134
  0.6209205747970742  0.7648665553899884  0.2583840477101067
  0.9975679698673676  0.6550307050061719  0.6896852957811617
  0.2862561935726587  0.0314205288741462  0.4087445184825244
  0.9069310603174681  0.7358303362208592  0.4611675910237344
  0.2786869170377121  0.7238497281754028  0.3178910929675411
  0.0984368909624650  0.5127578126867631  0.2999989344068080
  0.3339751087747683  0.1379491788017537  0.5210594381018485
  0.5579815252737903  0.0157731427072519  0.6778899649056689
  0.2801215148873610  0.6269940725567221  0.6541405067890588
  0.5728843183153711  0.3749223302587826  0.5446584941128777
  0.4674045190471607  0.9532701979811986  0.3281313533868174
  0.2861867847679345  0.6379784810003128  0.4080663552887898
  0.9086007322446120  0.7501584531357072  0.5812706512388881
  0.8517602790061262  0.4279708516979149  0.3015989525113129
  0.9294717232895899  0.0978312667469712  0.5770686339937525
  0.0342650208049249  0.3574103537644854  0.3888101927899543
  0.9399583546497475  0.5313661008394676  0.5965256626717470
  0.1702038086922030  0.5624074474236054  0.5709876415223165
  0.1919191945588970  0.2285671069647537  0.4340382994669646
  0.1181618580144716  0.2982987272071787  0.5541397477558759
  0.7558589807102696  0.5659979977281397  0.5021163284785279
  0.3609239126035398  0.1380734842226953  0.6300037458989325
  0.6565707244426976  0.1482079320124597  0.5996633505014551
  0.5374168811311354  0.2772659931142057  0.6699135467081323
  0.2674078634486107  0.4489679656669068  0.4801665437743091
  0.3174380557074296  0.3604303456942256  0.5984701499496002
  0.8606225588793898  0.9760657917827517  0.4010313421875451
  0.1464651472561763  0.0303848946845896  0.4995785201065479
  0.7592283302235450  0.6469134764779353  0.6856337078360630
  0.5047514064519016  0.6357892090483075  0.3424886468673991
  0.0014201139137706  0.4490723300040719  0.4819595478067773
  0.8746415602688430  0.9044593321774196  0.2888481273233093
  0.4528922336592009  0.8095587142837481  0.4333599253986757
  0.4526049211041832  0.3202827676814591  0.4530333157183808
  0.6032653224521350  0.7983073761683850  0.5041865990953044
  0.3354320401878828  0.7092721295475256  0.5110497039916972
  0.1604527092149456  0.8133769954041766  0.5712307607603693
  0.6433752747662094  0.2067484183786785  0.3827580789300909
  0.5710296439953680  0.9981897982659140  0.4170619874964417
  0.3523342654699048  0.9074864560141949  0.6505756506589389
  0.5268150038989398  0.5565916494398192  0.4615954037933180
  0.5699615210406358  0.1460624960778632  0.5064237931767616
  0.0633027192550490  0.0297203008882443  0.3499230406104339
  0.8098104867655046  0.3617013345459935  0.4197524033745601
  0.7025339559908528  0.9309871324723764  0.5723673751774286
  0.4945343716671380  0.7390347710373598  0.6432873672771856
  0.6796453278721286  0.8569298872746041  0.3474702072496254
  0.2652143105500645  0.9661565339863991  0.3045961378113237
  0.4599794278938202  0.5707085306985917  0.5726231251459460
  0.6866773676711200  0.2500124758785791  0.2872071556352063
  0.6869242577912081  0.6529842936230769  0.5912985650362413
  0.0708978757674446  0.9246138180698824  0.6483663279580267
  0.7483282152630053  0.6056810222749694  0.3986869082032638
  0.2913093915891954  0.4423731624591011  0.3563806961272890
  0.6651170531616847  0.0074903581414866  0.2524598492225589
  0.5355209524578554  0.4091042995635168  0.3626694172183617
  0.4155891694103022  0.1934626442575648  0.3535165257840324
  0.7115063994808872  0.4122299606521144  0.6236690888896985
  0.1172984830597045  0.6510685852468725  0.4767180114671015
  0.8300436012558225  0.2230400905435405  0.6699444111688145
  0.8740506372192570  0.2161032722278471  0.3508742124931054
  0.1005706643964380  0.1890088060384419  0.6417325249828459
  0.8492510342741698  0.3314754944706831  0.5394178926398050
  0.9356716508769007  0.1787853894308823  0.4740161878694629
  0.1759790203995504  0.2249039385360837  0.3287774247867315
  0.3107330310698596  0.2101871959690903  0.3116452172136789
  0.9126503655502306  0.8016803196062007  0.5186017418697113
  0.3570306918526255  0.8556244324618240  0.3296602021893169
  0.5770571833630386  0.8929733554512005  0.4572591457760189
  0.0577230667895371  0.4546057607978662  0.5731144708776932
  0.0626576434278498  0.4882350734682828  0.3589675347254688
  0.0287299600503713  0.0493213358985915  0.6208587708974547
  0.2707986893756397  0.6026706038048510  0.4712274075374862
  0.1829483732827221  0.9507804430965348  0.4449301991168437
  0.0266291680804660  0.2522686761514757  0.3381291715356766
  0.3943858659282805  0.9892689709722617  0.2773045316977709
  0.1157398591616903  0.9077807044458611  0.5306242891413527
  0.4243612777842851  0.8329178388798256  0.6040948710166033
  0.7074509818159532  0.9652641942871047  0.3943763657726952
  0.2841869694734070  0.0032823413762029  0.5264741461707588
  0.4711908425177102  0.2844547854485616  0.7279253203991212
  0.0341409667827720  0.8066492504216572  0.6871024323903938
  0.7587130416141958  0.4936931130531844  0.4402890931613652
  0.8612991184095284  0.4051665159476504  0.5948575582660959
  0.3497213182019276  0.2156604448737911  0.5743922327613959
  0.8483482198573983  0.9732203545475787  0.5639690970410761
  0.3155396070566323  0.7621750396299650  0.4503056986700469
  0.0152235603063216  0.9243495807623263  0.3054262187386624
  0.7299157883579156  0.8915816681287991  0.5102322706926449
  0.4245259540656523  0.5167479201321249  0.3563594616623784
  0.9221179983299983  0.7695005500251428  0.2731747974145243
  0.7819605025537966  0.2142919345451032  0.4024434779553665
  0.0544366292058934  0.7751842589132754  0.4513541358860137
  0.1874843384337951  0.6776530867630299  0.6092710293455339
  0.8810168717946785  0.3690036663919162  0.3609129541893047
  0.5526322687684535  0.7073305689849841  0.4541661664373562
  0.8240384068040240  0.6107103955472295  0.5617154809370989
  0.1811917620013828  0.1759491739689039  0.5299759946043977
  0.5715531802271967  0.2717657809064604  0.3264825745415544
  0.9848790798753055  0.4436080428411870  0.2788379402940353
  0.6724864688608202  0.6769150008512146  0.5268368733893716
  0.5089511323203277  0.2627237474341675  0.4005251531223112
  0.0147827768058236  0.6439482723885008  0.5692327046950905
 -0.0002064149251924  0.3186718420370566  0.5141074627134068
  0.4366652482204111  0.1900144473573980  0.4826464047339961
  0.4152507521939376  0.4534423681345263  0.4838669354777127
  0.8968882340513777  0.6684345517244606  0.4035831703511717
  0.4247006438537237  0.6929963569778160  0.3918690153250788
  0.6010169465112741  0.1571607359790459  0.7034551960554990
  0.8128205875828982  0.5543862265354267  0.2667659001105564
  0.8659811359981365  0.8703670264808330  0.4441074457764470
  0.5690787004568768  0.2259529988256098  0.5586185366123219
  0.5727520808682912  0.3059754842099067  0.4894023907535950
  0.8144545154056981  0.1484970948327012  0.6122457787262702
  0.1933654511178497  0.8376220486535038  0.2890774821273195
  0.3536801762063039  0.0405049983762101  0.3499773900036770
  0.7490702778303202  0.5513583707367148  0.6354736987598365
  0.3152885972469370  0.5920207454826097  0.5528142747609395
  0.5789528196950170  0.5147153561069058  0.3153718697510267
  0.8993781772226775  0.9457179097430966  0.6806592132264613
  0.1743764047700045  0.6993519638916172  0.5285254648596822
  0.4680256562252470  0.0521221346702387  0.5283197217503964
  0.1087956319090132  0.3612187802100296  0.4471581174413324
  0.1915648420370286  0.9493897022899813  0.3642047335289197
  0.6522216111261696  0.7078285146855309  0.6493668978303612
  0.6722445150655275  0.0725463724379194  0.5452828962576179
  0.2499996153285579  0.5872601257588259  0.3480051958341407
  0.4015236838149663  0.6676573641889071  0.3008452883323470
  0.4370212622030060  0.4213240148858711  0.5675952032186279
  0.0113326400260733  0.9381657481955655  0.3949635849155025
  0.9857445956550913  0.0495424753480975  0.5170622230448415
  0.2523954728480071  0.4931571244887780  0.6166174830889917
  0.6152685932874331  0.9605462054146577  0.3065132994457381
  0.8394149882774270  0.2760925733094351  0.2945017873561803
  0.9772387932862099  0.6069436253715833  0.4793095380399353
  0.9511833636452780  0.2513756606136210  0.4152809489656462
  0.5436549755083593  0.6920594731512193  0.5860149384835496
  0.4001847680339319  0.3440946072837112  0.3517690487503919
  0.2591053046417957  0.1104570009789813  0.4631196811099067
  0.8663351042521966  0.1860547350739692  0.5327572560651538
  0.1822213395775714  0.2964090779998765  0.6109498196493366
  0.0222758467133193  0.2164014653424961  0.5859867910064999
  0.8985795170066101  0.6731681800715645  0.6362379488319574
  0.6190734379035451  0.8884131188118590  0.2246436298902826
  0.7614093164216239  0.7926263186183837  0.5870743997030027
  0.5273886044821575  0.1469330597122646  0.6353085140555376
  0.7712910342865449  0.6728230458665965  0.4597107208020096
  0.2989703462313805  0.8197476513549061  0.5498169758233480
  0.4026399603959983  0.0424296552016684  0.6778902709438572
  0.3279223308439053  0.1787351001915923  0.4010788403639772
  0.6155136019918400  0.1217317805066183  0.4442714923597352
  0.1310182170619018  0.5109045819903553  0.5014586132611627
  0.5123679716893340  0.4412952402589292  0.4222009571585508
  0.1974565375960487  0.4057884026985592  0.3070635093787175
  0.5423655190060637  0.8746594235276068  0.3772885441281278
  0.8069107111580408  0.5463880220461586  0.3454805590568514
  0.6131539241168709  0.5112191779650626  0.5799668087978403
  0.9831122822455337  0.6291591550974241  0.3164085086429940
  0.7121707473221994  0.3489791163823361  0.5612552355692535
  0.2349039014961495  0.7603999915085631  0.3777886342991238
  0.8699799297063969  0.4664885714701785  0.5130824078759418
  0.8633167800555175  0.0561205076896215  0.4547089083620519
  0.3740574133521264  0.0070539044013456  0.6015115664614601
  0.7117021511933737  0.3954352175049813  0.2741318129316481
  0.7301346082623682  0.1616357942411421  0.3333001626749705
  0.5322565944477450  0.0851070609806954  0.3646569793547152
  0.0184246240836127  0.8385730975841195  0.6018533195476377
  0.3943660837624303  0.2899271079147566  0.6464566748875875
  0.4113754177800387  0.9604859730767420  0.4236693097832444
  0.6043212451250490  0.5901189164091261  0.3927647243536921
  0.6436976222442444  0.1509767710164943  0.2473899981833547
  0.7398778641501718  0.7258208636930183  0.3591987835938570
  0.8287337556578587  0.9029626088157202  0.3457623507693516
  0.9463578981198814  0.4486371698602944  0.4255804475711260
  0.8248125568724051  0.8990656097905783  0.6549674973711762
  0.6233730501894152  0.4955561315807558  0.4988873915292273
  0.0242871779971374  0.5353680487777498  0.6490733845092225
  0.4207819046864123  0.6051305818665663  0.6305067772126205
  0.5989291371583259  0.6375543865082407  0.2312532959326773
  0.6056090858796503  0.4115699959488432  0.6762312282034640
  0.5659615689061698  0.7684186924332251  0.3142812196044770
  0.7467882019736205  0.8106543789844791  0.2873499727220003
  0.6757581157931729  0.3566277948551766  0.3848563924753401
  0.8298789737648583  0.3012649187588898  0.4754332439665432
  0.2817213504504981  0.4806603956613877  0.4157596295736868
  0.8654992679083739  0.7329559077335702  0.7124560696331387
  0.4985791676468206  0.8825085689446047  0.6693437224902321
  0.8066291021618455  0.0004132545919673  0.2546101979182375
  0.1530335038221657  0.1323551852695849  0.3821582669006337
  0.2243790882560869  0.1109025458910295  0.6416900425397860
  0.5700593511032126  0.8825541423715210  0.5538902392743728
  0.1873895800156837  0.3186753673816696  0.3787708614787879
  0.0775049616970088  0.1506321152995419  0.4616312542192311
  0.2415380744194716  0.3870409973567402  0.5409865596100220
  0.9673967964878202  0.2199162437734829  0.6666360370707014
  0.0539826804013259  0.7634264023537078  0.3598056310311258
  0.9226013105840701  0.0772820893737899  0.3587470571764412
  0.6485130191937432  0.0084352398612691  0.6224326049632184
  0.4640891927789187  0.6260174475968533  0.5128722686062739
  0.8117277012096631  0.3755384839868860  0.6711544579004735
  0.1324086201092549  0.6212826415700394  0.4161621848912720
  0.4451677549208469  0.8192719398275348  0.5013185781582720
  0.1541397549505527  0.6458127774875860  0.6918067568960418
  0.3460896553426887  0.7552024784367166  0.6658607066284282
  0.1542640006088480  0.6537365369559183  0.2847034857817793
  0.1561475526642074  0.0798735096366226  0.3041196215194442
  0.6888260189119640  0.2599464343756026  0.6423321726950120
  0.2007925564402346  0.8908155476045206  0.6250634991079314
  0.2992647761467215  0.3117973027002069  0.4612442933344479
  0.5632659943450206  0.3532738590072173  0.6117660388055783
  0.0155509436314980  0.6382739904820279  0.7474212169422062
  0.8136869789768167  0.7273243667443754  0.7936783595625477
  0.3350686165787634  0.3643336797795167  0.7655156121776667
  0.7642999051452808  0.2149923394297446  0.8226764214240379
  0.2635470896060479  0.9090620533862136  0.7049871927594232
  0.5363670905779644  0.5919515330958597  0.8137445340410178
  0.5170824210686326  0.8634497207329238  0.7854992034771070
  0.1824892632816593  0.2790626858762043  0.7648357158932407
  0.6293973967663447  0.7517443141652270  0.8129086678590995
  0.8634602603136893  0.9343455755006409  0.7604758556804844
  0.7074267622510801  0.5406745177776444  0.7220335379467137
  0.5206047641073213  0.1542146835312718  0.7835941096954839
  0.7719808064901942  0.4114270582393130  0.7640569536234386
  0.3173552346822689  0.5399090766194957  0.7017781447627310
  0.8813710851837292  0.5520156782392964  0.6991721946378125
  0.1914048625851216  0.9821442984552663  0.8124567566398269
  0.7282293493994817  0.0430221070221497  0.7894956988559205
  0.0827531806887716  0.0094187784827520  0.6998412188937366
  0.2753813814162620  0.8686852076424799  0.7731099276179715
  0.1489533571402015  0.2441365758248106  0.6949335034216390
  0.3226716086121152  0.0884334690523226  0.7456803283642855
  0.5256715271670765  0.0001768690785287  0.7421639393972183
  0.6768872471346807  0.9475183714949839  0.6992172327671390
  0.0798236929520439  0.0624394628484638  0.7691916475027961
  0.6712885634109212  0.7202197739397913  0.7280540964550362
  0.0736540523624885  0.4362291556649989  0.7152501683131878
  0.7924757330556065  0.2565433291268163  0.7340897122403851
  0.8135371247585700  0.0955092614437805  0.6979314500790598
  0.2035450691377104  0.5159355018807628  0.7559181275552480
  0.5323043300376142  0.4748900552932986  0.7533265577781593
  0.5126726860551110  0.6957326015621326  0.7067596137648255
  0.6056521357526538  0.4501765811691111  0.7015259563142856
  0.1670184735349868  0.6374309566408719  0.7211102739700920
  0.8563866668541431  0.7356731814008894  0.7426044685158388
  0.4156662862575013  0.3252297879058845  0.7398024276642359
  0.7535872878484856  0.1510517978423590  0.8121744458124578
  0.2714842858898432  0.8897311083664842  0.7377294313488176
  0.5728955422830170  0.6525535256085506  0.8135452065050423
  0.5260411638094307  0.9213698585996017  0.7658156641168402
  0.2718572090060840  0.3271847097970378  0.7661645307299862
  0.5853590726077181  0.8045128698089876  0.8001753916262044
  0.8701794514528952  0.9327587269045118  0.7309410652893593
  0.7461783575511228  0.4657980561973867  0.7464257222976705
  0.6262475682887743  0.1607761071914509  0.7313602406642592
  0.4886011094141756  0.2368732724242963  0.7499301070796517
  0.2593643455144219  0.5188096004255142  0.7359201091320124
  0.8552975022800494  0.4255394608286813  0.6823507124941400
  0.1439050088944947  0.0202654316081931  0.7937898310181239
  0.7800613068057445  0.0043087621400876  0.7777040733936927
  0.0834348951552219  0.0406841504855216  0.7396878282753112
  0.2389996021197695  0.9219764749846695  0.7916691584848491
  0.1650897634467442  0.2627873988444260  0.7356897394162352
  0.3523348545373200  0.0680854383844761  0.7197724008594375
  0.5139908181023651  0.0904879965828815  0.7706198204953821
  0.7637997772063854  0.9113225355589510  0.6719522935959834
  0.9788316322277756  0.8299746469470456  0.7034717181926123
  0.7461112945192662  0.7401309180182776  0.7992616370115130
  0.1223475290593940  0.4636659492283479  0.7340323650549252
  0.7839742232601077  0.3252093640515740  0.7473120900370883
  0.8721377744388028  0.0152467745958137  0.6838373306965179
  0.0576537134357964  0.4818266601177134  0.6635457678320247
  0.5341349946741785  0.5207293737871377  0.7757310117283532
  0.5856696236332999  0.7091129360964143  0.7187337212115142
 
  0.00000000E+00  0.00000000E+00  0.00000000E+00
  0.00000000E+00  0.00000000E+00  0.00000000E+00
  0.00000000E+00  0.00000000E+00  0.00000000E+00
  0.00000000E+00  0.00000000E+00  0.00000000E+00
  0.00000000E+00  0.00000000E+00  0.00000000E+00
  0.00000000E+00  0.00000000E+00  0.00000000E+00
  0.00000000E+00  0.00000000E+00  0.00000000E+00
  0.00000000E+00  0.00000000E+00  0.00000000E+00
  0.00000000E+00  0.00000000E+00  0.00000000E+00
  0.00000000E+00  0.00000000E+00  0.00000000E+00
  0.00000000E+00  0.00000000E+00  0.00000000E+00
  0.00000000E+00  0.00000000E+00  0.00000000E+00
  0.00000000E+00  0.00000000E+00  0.00000000E+00
  0.00000000E+00  0.00000000E+00  0.00000000E+00
  0.00000000E+00  0.00000000E+00  0.00000000E+00
  0.00000000E+00  0.00000000E+00  0.00000000E+00
  0.00000000E+00  0.00000000E+00  0.00000000E+00
  0.00000000E+00  0.00000000E+00  0.00000000E+00
  0.00000000E+00  0.00000000E+00  0.00000000E+00
  0.00000000E+00  0.00000000E+00  0.00000000E+00
  0.00000000E+00  0.00000000E+00  0.00000000E+00
  0.00000000E+00  0.00000000E+00  0.00000000E+00
  0.00000000E+00  0.00000000E+00  0.00000000E+00
  0.00000000E+00  0.00000000E+00  0.00000000E+00
  0.00000000E+00  0.00000000E+00  0.00000000E+00
  0.00000000E+00  0.00000000E+00  0.00000000E+00
  0.00000000E+00  0.00000000E+00  0.00000000E+00
  0.00000000E+00  0.00000000E+00  0.00000000E+00
  0.00000000E+00  0.00000000E+00  0.00000000E+00
  0.00000000E+00  0.00000000E+00  0.00000000E+00
  0.00000000E+00  0.00000000E+00  0.00000000E+00
  0.00000000E+00  0.00000000E+00  0.00000000E+00
  0.00000000E+00  0.00000000E+00  0.00000000E+00
  0.00000000E+00  0.00000000E+00  0.00000000E+00
  0.00000000E+00  0.00000000E+00  0.00000000E+00
  0.00000000E+00  0.00000000E+00  0.00000000E+00
  0.00000000E+00  0.00000000E+00  0.00000000E+00
  0.00000000E+00  0.00000000E+00  0.00000000E+00
  0.00000000E+00  0.00000000E+00  0.00000000E+00
  0.00000000E+00  0.00000000E+00  0.00000000E+00
  0.00000000E+00  0.00000000E+00  0.00000000E+00
  0.00000000E+00  0.00000000E+00  0.00000000E+00
  0.00000000E+00  0.00000000E+00  0.00000000E+00
  0.00000000E+00  0.00000000E+00  0.00000000E+00
  0.00000000E+00  0.00000000E+00  0.00000000E+00
  0.00000000E+00  0.00000000E+00  0.00000000E+00
  0.00000000E+00  0.00000000E+00  0.00000000E+00
  0.00000000E+00  0.00000000E+00  0.00000000E+00
  0.00000000E+00  0.00000000E+00  0.00000000E+00
  0.00000000E+00  0.00000000E+00  0.00000000E+00
  0.00000000E+00  0.00000000E+00  0.00000000E+00
  0.00000000E+00  0.00000000E+00  0.00000000E+00
  0.00000000E+00  0.00000000E+00  0.00000000E+00
  0.00000000E+00  0.00000000E+00  0.00000000E+00
  0.00000000E+00  0.00000000E+00  0.00000000E+00
  0.00000000E+00  0.00000000E+00  0.00000000E+00
  0.00000000E+00  0.00000000E+00  0.00000000E+00
  0.00000000E+00  0.00000000E+00  0.00000000E+00
  0.00000000E+00  0.00000000E+00  0.00000000E+00
  0.00000000E+00  0.00000000E+00  0.00000000E+00
  0.00000000E+00  0.00000000E+00  0.00000000E+00
  0.00000000E+00  0.00000000E+00  0.00000000E+00
  0.00000000E+00  0.00000000E+00  0.00000000E+00
  0.00000000E+00  0.00000000E+00  0.00000000E+00
  0.00000000E+00  0.00000000E+00  0.00000000E+00
  0.00000000E+00  0.00000000E+00  0.00000000E+00
  0.00000000E+00  0.00000000E+00  0.00000000E+00
  0.00000000E+00  0.00000000E+00  0.00000000E+00
  0.00000000E+00  0.00000000E+00  0.00000000E+00
  0.00000000E+00  0.00000000E+00  0.00000000E+00
  0.00000000E+00  0.00000000E+00  0.00000000E+00
  0.00000000E+00  0.00000000E+00  0.00000000E+00
  0.00000000E+00  0.00000000E+00  0.00000000E+00
  0.00000000E+00  0.00000000E+00  0.00000000E+00
  0.00000000E+00  0.00000000E+00  0.00000000E+00
  0.00000000E+00  0.00000000E+00  0.00000000E+00
  0.00000000E+00  0.00000000E+00  0.00000000E+00
  0.00000000E+00  0.00000000E+00  0.00000000E+00
  0.00000000E+00  0.00000000E+00  0.00000000E+00
  0.00000000E+00  0.00000000E+00  0.00000000E+00
  0.00000000E+00  0.00000000E+00  0.00000000E+00
  0.00000000E+00  0.00000000E+00  0.00000000E+00
  0.00000000E+00  0.00000000E+00  0.00000000E+00
  0.00000000E+00  0.00000000E+00  0.00000000E+00
  0.00000000E+00  0.00000000E+00  0.00000000E+00
  0.00000000E+00  0.00000000E+00  0.00000000E+00
  0.00000000E+00  0.00000000E+00  0.00000000E+00
  0.00000000E+00  0.00000000E+00  0.00000000E+00
  0.00000000E+00  0.00000000E+00  0.00000000E+00
  0.00000000E+00  0.00000000E+00  0.00000000E+00
  0.00000000E+00  0.00000000E+00  0.00000000E+00
  0.00000000E+00  0.00000000E+00  0.00000000E+00
  0.00000000E+00  0.00000000E+00  0.00000000E+00
  0.00000000E+00  0.00000000E+00  0.00000000E+00
  0.00000000E+00  0.00000000E+00  0.00000000E+00
  0.00000000E+00  0.00000000E+00  0.00000000E+00
  0.00000000E+00  0.00000000E+00  0.00000000E+00
  0.00000000E+00  0.00000000E+00  0.00000000E+00
  0.00000000E+00  0.00000000E+00  0.00000000E+00
  0.00000000E+00  0.00000000E+00  0.00000000E+00
  0.00000000E+00  0.00000000E+00  0.00000000E+00
  0.00000000E+00  0.00000000E+00  0.00000000E+00
  0.00000000E+00  0.00000000E+00  0.00000000E+00
  0.00000000E+00  0.00000000E+00  0.00000000E+00
  0.00000000E+00  0.00000000E+00  0.00000000E+00
  0.00000000E+00  0.00000000E+00  0.00000000E+00
  0.00000000E+00  0.00000000E+00  0.00000000E+00
  0.00000000E+00  0.00000000E+00  0.00000000E+00
  0.00000000E+00  0.00000000E+00  0.00000000E+00
  0.00000000E+00  0.00000000E+00  0.00000000E+00
  0.00000000E+00  0.00000000E+00  0.00000000E+00
  0.00000000E+00  0.00000000E+00  0.00000000E+00
  0.00000000E+00  0.00000000E+00  0.00000000E+00
  0.00000000E+00  0.00000000E+00  0.00000000E+00
  0.00000000E+00  0.00000000E+00  0.00000000E+00
  0.00000000E+00  0.00000000E+00  0.00000000E+00
  0.00000000E+00  0.00000000E+00  0.00000000E+00
  0.00000000E+00  0.00000000E+00  0.00000000E+00
  0.00000000E+00  0.00000000E+00  0.00000000E+00
  0.00000000E+00  0.00000000E+00  0.00000000E+00
  0.00000000E+00  0.00000000E+00  0.00000000E+00
  0.00000000E+00  0.00000000E+00  0.00000000E+00
  0.00000000E+00  0.00000000E+00  0.00000000E+00
  0.00000000E+00  0.00000000E+00  0.00000000E+00
  0.00000000E+00  0.00000000E+00  0.00000000E+00
  0.00000000E+00  0.00000000E+00  0.00000000E+00
  0.00000000E+00  0.00000000E+00  0.00000000E+00
  0.00000000E+00  0.00000000E+00  0.00000000E+00
  0.00000000E+00  0.00000000E+00  0.00000000E+00
  0.00000000E+00  0.00000000E+00  0.00000000E+00
  0.00000000E+00  0.00000000E+00  0.00000000E+00
  0.00000000E+00  0.00000000E+00  0.00000000E+00
  0.00000000E+00  0.00000000E+00  0.00000000E+00
  0.00000000E+00  0.00000000E+00  0.00000000E+00
  0.00000000E+00  0.00000000E+00  0.00000000E+00
  0.00000000E+00  0.00000000E+00  0.00000000E+00
  0.00000000E+00  0.00000000E+00  0.00000000E+00
  0.00000000E+00  0.00000000E+00  0.00000000E+00
  0.00000000E+00  0.00000000E+00  0.00000000E+00
  0.00000000E+00  0.00000000E+00  0.00000000E+00
  0.00000000E+00  0.00000000E+00  0.00000000E+00
  0.00000000E+00  0.00000000E+00  0.00000000E+00
  0.00000000E+00  0.00000000E+00  0.00000000E+00
  0.00000000E+00  0.00000000E+00  0.00000000E+00
  0.00000000E+00  0.00000000E+00  0.00000000E+00
  0.00000000E+00  0.00000000E+00  0.00000000E+00
  0.00000000E+00  0.00000000E+00  0.00000000E+00
  0.00000000E+00  0.00000000E+00  0.00000000E+00
  0.00000000E+00  0.00000000E+00  0.00000000E+00
  0.00000000E+00  0.00000000E+00  0.00000000E+00
  0.00000000E+00  0.00000000E+00  0.00000000E+00
  0.00000000E+00  0.00000000E+00  0.00000000E+00
  0.00000000E+00  0.00000000E+00  0.00000000E+00
  0.00000000E+00  0.00000000E+00  0.00000000E+00
  0.00000000E+00  0.00000000E+00  0.00000000E+00
  0.00000000E+00  0.00000000E+00  0.00000000E+00
  0.00000000E+00  0.00000000E+00  0.00000000E+00
  0.00000000E+00  0.00000000E+00  0.00000000E+00
  0.00000000E+00  0.00000000E+00  0.00000000E+00
  0.00000000E+00  0.00000000E+00  0.00000000E+00
  0.00000000E+00  0.00000000E+00  0.00000000E+00
  0.00000000E+00  0.00000000E+00  0.00000000E+00
  0.00000000E+00  0.00000000E+00  0.00000000E+00
  0.00000000E+00  0.00000000E+00  0.00000000E+00
  0.00000000E+00  0.00000000E+00  0.00000000E+00
  0.00000000E+00  0.00000000E+00  0.00000000E+00
  0.00000000E+00  0.00000000E+00  0.00000000E+00
  0.00000000E+00  0.00000000E+00  0.00000000E+00
  0.00000000E+00  0.00000000E+00  0.00000000E+00
  0.00000000E+00  0.00000000E+00  0.00000000E+00
  0.00000000E+00  0.00000000E+00  0.00000000E+00
  0.00000000E+00  0.00000000E+00  0.00000000E+00
  0.00000000E+00  0.00000000E+00  0.00000000E+00
  0.00000000E+00  0.00000000E+00  0.00000000E+00
  0.00000000E+00  0.00000000E+00  0.00000000E+00
  0.00000000E+00  0.00000000E+00  0.00000000E+00
  0.00000000E+00  0.00000000E+00  0.00000000E+00
  0.00000000E+00  0.00000000E+00  0.00000000E+00
  0.00000000E+00  0.00000000E+00  0.00000000E+00
  0.00000000E+00  0.00000000E+00  0.00000000E+00
  0.00000000E+00  0.00000000E+00  0.00000000E+00
  0.00000000E+00  0.00000000E+00  0.00000000E+00
  0.00000000E+00  0.00000000E+00  0.00000000E+00
  0.00000000E+00  0.00000000E+00  0.00000000E+00
  0.00000000E+00  0.00000000E+00  0.00000000E+00
  0.00000000E+00  0.00000000E+00  0.00000000E+00
  0.00000000E+00  0.00000000E+00  0.00000000E+00
  0.00000000E+00  0.00000000E+00  0.00000000E+00
  0.00000000E+00  0.00000000E+00  0.00000000E+00
  0.00000000E+00  0.00000000E+00  0.00000000E+00
  0.00000000E+00  0.00000000E+00  0.00000000E+00
  0.00000000E+00  0.00000000E+00  0.00000000E+00
  0.00000000E+00  0.00000000E+00  0.00000000E+00
  0.00000000E+00  0.00000000E+00  0.00000000E+00
  0.00000000E+00  0.00000000E+00  0.00000000E+00
  0.00000000E+00  0.00000000E+00  0.00000000E+00
  0.00000000E+00  0.00000000E+00  0.00000000E+00
  0.00000000E+00  0.00000000E+00  0.00000000E+00
  0.00000000E+00  0.00000000E+00  0.00000000E+00
  0.00000000E+00  0.00000000E+00  0.00000000E+00
  0.00000000E+00  0.00000000E+00  0.00000000E+00
  0.00000000E+00  0.00000000E+00  0.00000000E+00
  0.00000000E+00  0.00000000E+00  0.00000000E+00
  0.00000000E+00  0.00000000E+00  0.00000000E+00
  0.00000000E+00  0.00000000E+00  0.00000000E+00
  0.00000000E+00  0.00000000E+00  0.00000000E+00
  0.00000000E+00  0.00000000E+00  0.00000000E+00
  0.00000000E+00  0.00000000E+00  0.00000000E+00
  0.00000000E+00  0.00000000E+00  0.00000000E+00
  0.00000000E+00  0.00000000E+00  0.00000000E+00
  0.00000000E+00  0.00000000E+00  0.00000000E+00
  0.00000000E+00  0.00000000E+00  0.00000000E+00
  0.00000000E+00  0.00000000E+00  0.00000000E+00
  0.00000000E+00  0.00000000E+00  0.00000000E+00
  0.00000000E+00  0.00000000E+00  0.00000000E+00
  0.00000000E+00  0.00000000E+00  0.00000000E+00
  0.00000000E+00  0.00000000E+00  0.00000000E+00
  0.00000000E+00  0.00000000E+00  0.00000000E+00
  0.00000000E+00  0.00000000E+00  0.00000000E+00
  0.00000000E+00  0.00000000E+00  0.00000000E+00
  0.00000000E+00  0.00000000E+00  0.00000000E+00
  0.00000000E+00  0.00000000E+00  0.00000000E+00
  0.00000000E+00  0.00000000E+00  0.00000000E+00
  0.00000000E+00  0.00000000E+00  0.00000000E+00
  0.00000000E+00  0.00000000E+00  0.00000000E+00
  0.00000000E+00  0.00000000E+00  0.00000000E+00
  0.00000000E+00  0.00000000E+00  0.00000000E+00
  0.00000000E+00  0.00000000E+00  0.00000000E+00
  0.00000000E+00  0.00000000E+00  0.00000000E+00
  0.00000000E+00  0.00000000E+00  0.00000000E+00
  0.00000000E+00  0.00000000E+00  0.00000000E+00
  0.00000000E+00  0.00000000E+00  0.00000000E+00
  0.00000000E+00  0.00000000E+00  0.00000000E+00
  0.00000000E+00  0.00000000E+00  0.00000000E+00
  0.00000000E+00  0.00000000E+00  0.00000000E+00
  0.00000000E+00  0.00000000E+00  0.00000000E+00
  0.00000000E+00  0.00000000E+00  0.00000000E+00
  0.00000000E+00  0.00000000E+00  0.00000000E+00
  0.00000000E+00  0.00000000E+00  0.00000000E+00
  0.00000000E+00  0.00000000E+00  0.00000000E+00
  0.00000000E+00  0.00000000E+00  0.00000000E+00
  0.00000000E+00  0.00000000E+00  0.00000000E+00
  0.00000000E+00  0.00000000E+00  0.00000000E+00
  0.00000000E+00  0.00000000E+00  0.00000000E+00
  0.00000000E+00  0.00000000E+00  0.00000000E+00
  0.00000000E+00  0.00000000E+00  0.00000000E+00
  0.00000000E+00  0.00000000E+00  0.00000000E+00
  0.00000000E+00  0.00000000E+00  0.00000000E+00
  0.00000000E+00  0.00000000E+00  0.00000000E+00
  0.00000000E+00  0.00000000E+00  0.00000000E+00
  0.00000000E+00  0.00000000E+00  0.00000000E+00
  0.00000000E+00  0.00000000E+00  0.00000000E+00
  0.00000000E+00  0.00000000E+00  0.00000000E+00
  0.00000000E+00  0.00000000E+00  0.00000000E+00
  0.00000000E+00  0.00000000E+00  0.00000000E+00
  0.00000000E+00  0.00000000E+00  0.00000000E+00
  0.00000000E+00  0.00000000E+00  0.00000000E+00