Hf  O  F  H                             
   1.00000000000000     
    13.7225301000000002    0.0000000000000000    0.0000000000000000
     0.0000000000000000   13.7225301000000002    0.0000000000000000
     0.0000000000000000    0.0000000000000000   32.7225301000000002
   Hf   O    F    H 
    72   144     1     1
Direct
  0.1357304705755193  0.8682514086046149  0.4153674102172573
  0.8665443465541278  0.9474318785227853  0.5034821901656025
  0.0222926695105439  0.6286706635219541  0.3936387409388443
  0.8745824570886059  0.6434376340959562  0.3022533527735799
  0.0760743942241704  0.7885536735308191  0.3142777754217496
  0.4082697987565603  0.9441255786848347  0.5534589754689972
  0.6306375356792130  0.5175459609979218  0.2765304764246644
  0.6820084344574102  0.7529262318462535  0.2772278201207162
  0.0369336357102900  0.6478278016297511  0.6702519287891585
  0.2830871450601892  0.0591597174841081  0.4123065187256554
  0.9268846311327942  0.7402037639861897  0.4673047062242706
  0.2884782572868062  0.7633795640166626  0.2953293047953501
  0.1020703317927222  0.5285859327099600  0.3097512004995567
  0.3433709478010543  0.1682934520471405  0.5242958525807276
  0.5227319192614829  0.9773794134694175  0.6621014943381508
  0.2696887081110159  0.6359526224924822  0.6526470338404959
  0.5491986958645327  0.3688065801505879  0.5413616809460902
  0.4675190796385572  0.9922083538169973  0.3223398492938013
  0.2851981838660045  0.6606912580352398  0.3871576186137502
  0.8956335897981939  0.7222230649050544  0.5663858821643453
  0.8372593844130015  0.4319370950988194  0.3140104445075574
  0.9161166790190385  0.0966075699723219  0.5741702788988867
  0.0119843541198088  0.3558301995155542  0.3895733238494503
  0.9169757737965489  0.4980281637806037  0.5926617605798947
  0.1401167093134718  0.5379409619861057  0.5843593057567326
  0.1792791937089209  0.2500340427328760  0.4455124782487742
  0.1118462177160388  0.2886414868328629  0.5445222246779944
  0.7460356089466761  0.5578011068185734  0.5139471634125402
  0.3349820673658035  0.1366034179290332  0.6369106060701277
  0.6584641078285612  0.1514610631277316  0.6115181990666272
  0.5190519411972524  0.2891149819225335  0.6790626385039943
  0.2651105547462942  0.4506784988803809  0.4954773877423452
  0.3037758734955444  0.3554647518366194  0.6082643473206116
  0.8582568225125049  0.9805574656759589  0.4072606279427357
  0.1620240310862319  0.0443532541735370  0.5076060309108996
  0.8100158518150430  0.7008901912573605  0.6698367809918847
  0.4928048176096616  0.6472594564052196  0.3467489775367517
  0.0118995700484735  0.4709751950788564  0.4990311902554100
  0.8816707192995284  0.9241456152304816  0.3013916558708342
  0.4163752663822338  0.8202998793415721  0.4422777512971898
  0.4261003313038099  0.3361565592271915  0.4473975239295388
  0.6055757353148173  0.8041215163662205  0.5005868195654765
  0.3374474403372960  0.7107265549891832  0.5365086046129619
  0.1434362759646491  0.8232032956526562  0.5777571386041548
  0.6804747746158496  0.2323087336455918  0.4314272417639422
  0.5604187641212536  0.0041941287277854  0.4149717736993284
  0.3114435265017623  0.9033873727178666  0.6380825740309580
  0.4941267586729182  0.5612658805396866  0.4810132967476081
  0.5904445357817952  0.1492901972610486  0.5167036933089096
  0.0645803170794535  0.0566258923759246  0.3612663589812979
  0.8088109925539972  0.4201020771414376  0.4311688651898807
  0.6973376184827658  0.9262951875385487  0.5747409659842105
  0.5056390877621184  0.7340690699087503  0.6689194707026965
  0.6810609029112887  0.8471617791618480  0.3650835095335725
  0.2572227175683851  0.9995562344742099  0.3075464615521572
  0.4486386969892200  0.5654779622566555  0.5971234368759515
  0.6526494153012986  0.2879692590442767  0.2889994772929517
  0.6600469650057966  0.6750138690857992  0.5986127803795104
 -0.0005138704795931  0.8973190514750244  0.6479458066872610
  0.7476694597597571  0.6361581801434428  0.3918831581985037
  0.2948691316490146  0.4263475489679178  0.3705300258019716
  0.6945319058268101  0.0450194091518003  0.2665136655208143
  0.5686035962861815  0.4283165857039990  0.3732671185398124
  0.4337261098368368  0.2195870994975760  0.3631423573243674
  0.6856238205216889  0.4523404331001590  0.6283601209526031
  0.1602036456174528  0.6684382046840179  0.4758824744463332
  0.8482456989226284  0.2909664159422847  0.6392720620523984
  0.8544985087970711  0.1977818265677125  0.3411111679291002
  0.0799365137538374  0.1816686208340194  0.6343450951083114
  0.8084049672647449  0.3279793077301001  0.5295311756907566
  0.9404003715760191  0.1862811783561645  0.4783650599633391
  0.1648395861258626  0.2558222278707139  0.3306176951989037
  0.3069780912795416  0.2900291681869361  0.3348635371287307
  0.9353035704485372  0.8249679568611619  0.5203207101783257
  0.3622904775355833  0.8846838810151167  0.3177959037926951
  0.5500741120645924  0.8896245416610675  0.4548312953313560
  0.0486842463754238  0.4285021572383875  0.5608206747769890
  0.0424502318813129  0.4948519846313519  0.3667416312455120
  0.0030351960858047  0.0495322103817457  0.6241568661597151
  0.3075230747902337  0.6104499691102899  0.4844712047653798
  0.1868866192275824  0.9732588354229921  0.4516954294407681
  0.0131722525107621  0.2354557897671987  0.3444272135749610
  0.3715627155154200  0.0474374788494942  0.2791940387045442
  0.1277680661641376  0.9342518235630645  0.5431743596171339
  0.4618308552067925  0.9094910701320461  0.6156792329289122
  0.7041761076519006  0.9691625626702584  0.4030162456276455
  0.3047512066999432  0.0161245875232979  0.5202450877665282
  0.5069895558291931  0.2844366866027935  0.7324452841184502
  0.0492597406979791  0.7880811430306444  0.6790244276856017
  0.7588155580847692  0.5622382104861939  0.4438017875397141
  0.8834791920264269  0.3425070925731614  0.5851715477464009
  0.3559801590781967  0.2233696123281081  0.5823996528295727
  0.8377661476872426  0.9726474268429008  0.5657912442157853
  0.2623161367684336  0.7740347511960268  0.4354296668489531
  0.0226687200150894  0.9411577414217448  0.3198077147898757
  0.7255172233103266  0.8925507763283184  0.5099008175657102
  0.3882931069201100  0.5562535800383990  0.3769548353797044
  0.9396832785382918  0.7845932950830476  0.2864100362860617
  0.8243616250603053  0.2722630813007298  0.4497748655177546
  0.0709058846614452  0.7852727283010698  0.4595472421049258
  0.1454262581040198  0.6740276662343753  0.6158897737387226
  0.8717688180726729  0.3505016639418777  0.3671782767365017
  0.5093451139887023  0.7063006878449705  0.4647834693138709
  0.7874119234651196  0.5872264940323029  0.5747135871973422
  0.2035790785109976  0.1653266042705944  0.5447939032289867
  0.5473189433514029  0.2895869736521465  0.3302973718416112
  0.9557608085347106  0.5039295232390011  0.2890224227693542
  0.6509517366457513  0.6795604321564133  0.5280514127933840
  0.5370323788668853  0.2618261792657769  0.4156797816333901
  0.9963350624274817  0.6117773254211112  0.5591322911835608
  0.9626068986507759  0.3188617382986604  0.5084026876974727
  0.4777077963321705  0.2586483929625814  0.5034639407531063
  0.4170082770255126  0.4384427114887515  0.5000933868381755
  0.8922299497212015  0.6857110799809711  0.4099889063828053
  0.4203262483064751  0.7365468125196567  0.3903781945191458
  0.5699240373437742  0.1350517846127482  0.6738555002605616
  0.7781442828617250  0.5435544815456504  0.2765665014890351
  0.8696927379875113  0.8704034430702173  0.4479593348380844
  0.5850612246265466  0.2367910739451603  0.5707443118215507
  0.6679684095148509  0.2681423642180568  0.4973133344433552
  0.8085985085521217  0.1590575118107595  0.6127794389628046
  0.1868228159319077  0.8748804974640262  0.2833507864668572
  0.3428713457806398  0.0817051281260488  0.3537521568820360
  0.7198374478675170  0.5909698706807804  0.6484068629449293
  0.3093590396981015  0.6281596168480665  0.5864262263168116
  0.5226885864261023  0.5142405683067003  0.3172598832070740
  0.8866021508692582  0.9175671644456155  0.6878017568257855
  0.1904161653949795  0.7351206097124834  0.5294456157397401
  0.4690294940183741  0.0752534983620589  0.5335321125008896
  0.1312790885788920  0.3748506794714047  0.4828161975477273
  0.1948173372056767  0.9642097981611385  0.3696560719283283
  0.6527863799627427  0.7554199282650993  0.6527205402084856
  0.6714837369115183  0.0727542826731254  0.5566081912539314
  0.2241315156532221  0.5450874074213229  0.3457250422654566
  0.3994780447056170  0.6761526808611382  0.3019559115424174
  0.4434115201289582  0.4134673011877293  0.5842893478642451
  0.0186439843073797  0.9633193025001423  0.4071057145824134
  0.9765589975222625  0.0508803634976064  0.5176680686565318
  0.2456182011818067  0.4879848274872625  0.6272709775601261
  0.5768260859964998  0.9772961825206224  0.2843181610935884
  0.8052506576003267  0.2890188672268836  0.2944778594685636
  0.0163508473615127  0.6105374845802065  0.4655778271954839
  0.0204777512045628  0.2493986293566201  0.4296680648392582
  0.5136031562261157  0.7016291431280297  0.6063194240093043
  0.4291480009003213  0.3718854509791925  0.3785586835875723
  0.2594229462786281  0.1314384079319006  0.4667973468312391
  0.8448220742662899  0.1830695179588672  0.5298992739180890
  0.1672987859834318  0.2900292223816610  0.6080120461612665
  0.0226568265647679  0.2003980207064962  0.5764407313910772
  0.9046312647028427  0.6640642880797774  0.6264984764885535
  0.7526641866477402  0.8874492744298330  0.2701705472467992
  0.7600280993243557  0.7875106556226629  0.5842209951965993
  0.5088468353153888  0.1426211536331980  0.6349490714624649
  0.8411407371324758  0.6721076471536682  0.5068986865161701
  0.3066869180222030  0.8341854699042801  0.5788494998071022
  0.3786942853710352  0.0177564989268866  0.6733866738546506
  0.3500490781443719  0.2172278314957119  0.4146143239276682
  0.6144148349560238  0.1060454181373577  0.4563371188763098
  0.1480415731092640  0.5448829986156647  0.5140842524650326
  0.5150326956214565  0.4605309156826201  0.4340882448190148
  0.1370058663058548  0.3847109667059203  0.3034518644477926
  0.5461066900379370  0.9084202154970074  0.3669605453670028
  0.8370924833488247  0.5493080948858060  0.3546819237954624
  0.5948339008384051  0.5353256144374090  0.5942383746262401
  0.0125517667752406  0.6494945094769938  0.3301080874320238
  0.6960442239577769  0.3897861456127072  0.5675639462891989
  0.2283512189808733  0.7568944653279142  0.3494746371734205
  0.8797026663248749  0.4779396277408511  0.5293301550036336
  0.8554430553786242  0.0635937412677233  0.4573768866195707
  0.3270904476732725  0.0247335892729408  0.5975169630076623
  0.6866240806199537  0.4234706486350437  0.3222321157077583
  0.7479798469173885  0.1820486661768036  0.3794750828665882
  0.5221174802565346  0.0951973959284248  0.3662376484590913
  0.9982453361478413  0.8188649758818833  0.5945123318015488
  0.3733772539453699  0.2843409965548481  0.6571391692558798
  0.4002898922136499  0.9670424984308136  0.4235540241367441
  0.6148818742970779  0.5764411222400386  0.3783466353063379
  0.6490835971147864  0.1750774566624751  0.2521309441925746
  0.6898040910117824  0.7614173883059380  0.4111084322337906
  0.8263665410283427  0.8957591480867464  0.3544331816048589
  0.9562036225773426  0.4415192204451256  0.4374986092536285
  0.8531733854586316  0.8498750622370135  0.6546735053901445
  0.5998768287341218  0.4936077523097334  0.5111931135016837
  0.0362078632102018  0.5187167387936836  0.6295200932619925
  0.4143851337232958  0.5905682713767565  0.6564485035704847
  0.6206852329441535  0.6472113330407689  0.2468579901531869
  0.5712776169382137  0.4333195314161228  0.6706200466986942
  0.5900752546487306  0.7558166494080446  0.3251467542910515
  0.7652702859079303  0.7210781145431122  0.3318411689628914
  0.6868906313192089  0.3721429746929198  0.4035967973143402
  0.7579875461391991  0.4214920153044108  0.4864553016413219
  0.2963677304690683  0.4239645889095355  0.4324275233356886
  0.9090435328941341  0.6467008655195138  0.7046200122455553
  0.5181782010826410  0.8647685154454978  0.6961720236651348
  0.8290861875802813  0.0669702355041070  0.2941309488577091
  0.1628371776503817  0.1473637659341722  0.3935516393075048
  0.2024575247975337  0.1297272099370622  0.6579062933111891
  0.5630720622948026  0.8808194615252658  0.5493539449271347
  0.1643526702022404  0.3381082600387681  0.3864080900344073
  0.0908315581284315  0.1811034001010688  0.4898358816932813
  0.2383456010210229  0.4042436477034839  0.5534741150363173
  0.9730737301403202  0.2496721949351295  0.6635652321651839
  0.0582683491515083  0.7753669664677126  0.3767293542624135
  0.9180879522437180  0.0791546980098619  0.3666406459901116
  0.6505350629750496  0.9985509180271518  0.6269201234787432
  0.4519282152481675  0.6170377350177344  0.5371855059825664
  0.8300476402657669  0.4390145910570241  0.6435447302978293
  0.1624014737014037  0.6145107620068336  0.4167617452269174
  0.3986515633476311  0.8304081446958559  0.5070899431173133
  0.1676406094897177  0.6149728065472764  0.6934458761215891
  0.3431871006615888  0.7700847510558607  0.6626313559396201
  0.1594565555014067  0.6753524176525207  0.2834560688098922
  0.1535997269961088  0.1113974196419688  0.3110250352572145
  0.6877491608443609  0.2901821432248232  0.6453168017292974
  0.1649430900961830  0.8984797691936361  0.6314156286479655
  0.2966533268309628  0.2960844915575501  0.4876384486036357
  0.5444255240892590  0.6486562483723635  0.7131368782930556
  0.5447039597423023  0.4888486016253015  0.6859810921736104
 
  0.00000000E+00  0.00000000E+00  0.00000000E+00
  0.00000000E+00  0.00000000E+00  0.00000000E+00
  0.00000000E+00  0.00000000E+00  0.00000000E+00
  0.00000000E+00  0.00000000E+00  0.00000000E+00
  0.00000000E+00  0.00000000E+00  0.00000000E+00
  0.00000000E+00  0.00000000E+00  0.00000000E+00
  0.00000000E+00  0.00000000E+00  0.00000000E+00
  0.00000000E+00  0.00000000E+00  0.00000000E+00
  0.00000000E+00  0.00000000E+00  0.00000000E+00
  0.00000000E+00  0.00000000E+00  0.00000000E+00
  0.00000000E+00  0.00000000E+00  0.00000000E+00
  0.00000000E+00  0.00000000E+00  0.00000000E+00
  0.00000000E+00  0.00000000E+00  0.00000000E+00
  0.00000000E+00  0.00000000E+00  0.00000000E+00
  0.00000000E+00  0.00000000E+00  0.00000000E+00
  0.00000000E+00  0.00000000E+00  0.00000000E+00
  0.00000000E+00  0.00000000E+00  0.00000000E+00
  0.00000000E+00  0.00000000E+00  0.00000000E+00
  0.00000000E+00  0.00000000E+00  0.00000000E+00
  0.00000000E+00  0.00000000E+00  0.00000000E+00
  0.00000000E+00  0.00000000E+00  0.00000000E+00
  0.00000000E+00  0.00000000E+00  0.00000000E+00
  0.00000000E+00  0.00000000E+00  0.00000000E+00
  0.00000000E+00  0.00000000E+00  0.00000000E+00
  0.00000000E+00  0.00000000E+00  0.00000000E+00
  0.00000000E+00  0.00000000E+00  0.00000000E+00
  0.00000000E+00  0.00000000E+00  0.00000000E+00
  0.00000000E+00  0.00000000E+00  0.00000000E+00
  0.00000000E+00  0.00000000E+00  0.00000000E+00
  0.00000000E+00  0.00000000E+00  0.00000000E+00
  0.00000000E+00  0.00000000E+00  0.00000000E+00
  0.00000000E+00  0.00000000E+00  0.00000000E+00
  0.00000000E+00  0.00000000E+00  0.00000000E+00
  0.00000000E+00  0.00000000E+00  0.00000000E+00
  0.00000000E+00  0.00000000E+00  0.00000000E+00
  0.00000000E+00  0.00000000E+00  0.00000000E+00
  0.00000000E+00  0.00000000E+00  0.00000000E+00
  0.00000000E+00  0.00000000E+00  0.00000000E+00
  0.00000000E+00  0.00000000E+00  0.00000000E+00
  0.00000000E+00  0.00000000E+00  0.00000000E+00
  0.00000000E+00  0.00000000E+00  0.00000000E+00
  0.00000000E+00  0.00000000E+00  0.00000000E+00
  0.00000000E+00  0.00000000E+00  0.00000000E+00
  0.00000000E+00  0.00000000E+00  0.00000000E+00
  0.00000000E+00  0.00000000E+00  0.00000000E+00
  0.00000000E+00  0.00000000E+00  0.00000000E+00
  0.00000000E+00  0.00000000E+00  0.00000000E+00
  0.00000000E+00  0.00000000E+00  0.00000000E+00
  0.00000000E+00  0.00000000E+00  0.00000000E+00
  0.00000000E+00  0.00000000E+00  0.00000000E+00
  0.00000000E+00  0.00000000E+00  0.00000000E+00
  0.00000000E+00  0.00000000E+00  0.00000000E+00
  0.00000000E+00  0.00000000E+00  0.00000000E+00
  0.00000000E+00  0.00000000E+00  0.00000000E+00
  0.00000000E+00  0.00000000E+00  0.00000000E+00
  0.00000000E+00  0.00000000E+00  0.00000000E+00
  0.00000000E+00  0.00000000E+00  0.00000000E+00
  0.00000000E+00  0.00000000E+00  0.00000000E+00
  0.00000000E+00  0.00000000E+00  0.00000000E+00
  0.00000000E+00  0.00000000E+00  0.00000000E+00
  0.00000000E+00  0.00000000E+00  0.00000000E+00
  0.00000000E+00  0.00000000E+00  0.00000000E+00
  0.00000000E+00  0.00000000E+00  0.00000000E+00
  0.00000000E+00  0.00000000E+00  0.00000000E+00
  0.00000000E+00  0.00000000E+00  0.00000000E+00
  0.00000000E+00  0.00000000E+00  0.00000000E+00
  0.00000000E+00  0.00000000E+00  0.00000000E+00
  0.00000000E+00  0.00000000E+00  0.00000000E+00
  0.00000000E+00  0.00000000E+00  0.00000000E+00
  0.00000000E+00  0.00000000E+00  0.00000000E+00
  0.00000000E+00  0.00000000E+00  0.00000000E+00
  0.00000000E+00  0.00000000E+00  0.00000000E+00
  0.00000000E+00  0.00000000E+00  0.00000000E+00
  0.00000000E+00  0.00000000E+00  0.00000000E+00
  0.00000000E+00  0.00000000E+00  0.00000000E+00
  0.00000000E+00  0.00000000E+00  0.00000000E+00
  0.00000000E+00  0.00000000E+00  0.00000000E+00
  0.00000000E+00  0.00000000E+00  0.00000000E+00
  0.00000000E+00  0.00000000E+00  0.00000000E+00
  0.00000000E+00  0.00000000E+00  0.00000000E+00
  0.00000000E+00  0.00000000E+00  0.00000000E+00
  0.00000000E+00  0.00000000E+00  0.00000000E+00
  0.00000000E+00  0.00000000E+00  0.00000000E+00
  0.00000000E+00  0.00000000E+00  0.00000000E+00
  0.00000000E+00  0.00000000E+00  0.00000000E+00
  0.00000000E+00  0.00000000E+00  0.00000000E+00
  0.00000000E+00  0.00000000E+00  0.00000000E+00
  0.00000000E+00  0.00000000E+00  0.00000000E+00
  0.00000000E+00  0.00000000E+00  0.00000000E+00
  0.00000000E+00  0.00000000E+00  0.00000000E+00
  0.00000000E+00  0.00000000E+00  0.00000000E+00
  0.00000000E+00  0.00000000E+00  0.00000000E+00
  0.00000000E+00  0.00000000E+00  0.00000000E+00
  0.00000000E+00  0.00000000E+00  0.00000000E+00
  0.00000000E+00  0.00000000E+00  0.00000000E+00
  0.00000000E+00  0.00000000E+00  0.00000000E+00
  0.00000000E+00  0.00000000E+00  0.00000000E+00
  0.00000000E+00  0.00000000E+00  0.00000000E+00
  0.00000000E+00  0.00000000E+00  0.00000000E+00
  0.00000000E+00  0.00000000E+00  0.00000000E+00
  0.00000000E+00  0.00000000E+00  0.00000000E+00
  0.00000000E+00  0.00000000E+00  0.00000000E+00
  0.00000000E+00  0.00000000E+00  0.00000000E+00
  0.00000000E+00  0.00000000E+00  0.00000000E+00
  0.00000000E+00  0.00000000E+00  0.00000000E+00
  0.00000000E+00  0.00000000E+00  0.00000000E+00
  0.00000000E+00  0.00000000E+00  0.00000000E+00
  0.00000000E+00  0.00000000E+00  0.00000000E+00
  0.00000000E+00  0.00000000E+00  0.00000000E+00
  0.00000000E+00  0.00000000E+00  0.00000000E+00
  0.00000000E+00  0.00000000E+00  0.00000000E+00
  0.00000000E+00  0.00000000E+00  0.00000000E+00
  0.00000000E+00  0.00000000E+00  0.00000000E+00
  0.00000000E+00  0.00000000E+00  0.00000000E+00
  0.00000000E+00  0.00000000E+00  0.00000000E+00
  0.00000000E+00  0.00000000E+00  0.00000000E+00
  0.00000000E+00  0.00000000E+00  0.00000000E+00
  0.00000000E+00  0.00000000E+00  0.00000000E+00
  0.00000000E+00  0.00000000E+00  0.00000000E+00
  0.00000000E+00  0.00000000E+00  0.00000000E+00
  0.00000000E+00  0.00000000E+00  0.00000000E+00
  0.00000000E+00  0.00000000E+00  0.00000000E+00
  0.00000000E+00  0.00000000E+00  0.00000000E+00
  0.00000000E+00  0.00000000E+00  0.00000000E+00
  0.00000000E+00  0.00000000E+00  0.00000000E+00
  0.00000000E+00  0.00000000E+00  0.00000000E+00
  0.00000000E+00  0.00000000E+00  0.00000000E+00
  0.00000000E+00  0.00000000E+00  0.00000000E+00
  0.00000000E+00  0.00000000E+00  0.00000000E+00
  0.00000000E+00  0.00000000E+00  0.00000000E+00
  0.00000000E+00  0.00000000E+00  0.00000000E+00
  0.00000000E+00  0.00000000E+00  0.00000000E+00
  0.00000000E+00  0.00000000E+00  0.00000000E+00
  0.00000000E+00  0.00000000E+00  0.00000000E+00
  0.00000000E+00  0.00000000E+00  0.00000000E+00
  0.00000000E+00  0.00000000E+00  0.00000000E+00
  0.00000000E+00  0.00000000E+00  0.00000000E+00
  0.00000000E+00  0.00000000E+00  0.00000000E+00
  0.00000000E+00  0.00000000E+00  0.00000000E+00
  0.00000000E+00  0.00000000E+00  0.00000000E+00
  0.00000000E+00  0.00000000E+00  0.00000000E+00
  0.00000000E+00  0.00000000E+00  0.00000000E+00
  0.00000000E+00  0.00000000E+00  0.00000000E+00
  0.00000000E+00  0.00000000E+00  0.00000000E+00
  0.00000000E+00  0.00000000E+00  0.00000000E+00
  0.00000000E+00  0.00000000E+00  0.00000000E+00
  0.00000000E+00  0.00000000E+00  0.00000000E+00
  0.00000000E+00  0.00000000E+00  0.00000000E+00
  0.00000000E+00  0.00000000E+00  0.00000000E+00
  0.00000000E+00  0.00000000E+00  0.00000000E+00
  0.00000000E+00  0.00000000E+00  0.00000000E+00
  0.00000000E+00  0.00000000E+00  0.00000000E+00
  0.00000000E+00  0.00000000E+00  0.00000000E+00
  0.00000000E+00  0.00000000E+00  0.00000000E+00
  0.00000000E+00  0.00000000E+00  0.00000000E+00
  0.00000000E+00  0.00000000E+00  0.00000000E+00
  0.00000000E+00  0.00000000E+00  0.00000000E+00
  0.00000000E+00  0.00000000E+00  0.00000000E+00
  0.00000000E+00  0.00000000E+00  0.00000000E+00
  0.00000000E+00  0.00000000E+00  0.00000000E+00
  0.00000000E+00  0.00000000E+00  0.00000000E+00
  0.00000000E+00  0.00000000E+00  0.00000000E+00
  0.00000000E+00  0.00000000E+00  0.00000000E+00
  0.00000000E+00  0.00000000E+00  0.00000000E+00
  0.00000000E+00  0.00000000E+00  0.00000000E+00
  0.00000000E+00  0.00000000E+00  0.00000000E+00
  0.00000000E+00  0.00000000E+00  0.00000000E+00
  0.00000000E+00  0.00000000E+00  0.00000000E+00
  0.00000000E+00  0.00000000E+00  0.00000000E+00
  0.00000000E+00  0.00000000E+00  0.00000000E+00
  0.00000000E+00  0.00000000E+00  0.00000000E+00
  0.00000000E+00  0.00000000E+00  0.00000000E+00
  0.00000000E+00  0.00000000E+00  0.00000000E+00
  0.00000000E+00  0.00000000E+00  0.00000000E+00
  0.00000000E+00  0.00000000E+00  0.00000000E+00
  0.00000000E+00  0.00000000E+00  0.00000000E+00
  0.00000000E+00  0.00000000E+00  0.00000000E+00
  0.00000000E+00  0.00000000E+00  0.00000000E+00
  0.00000000E+00  0.00000000E+00  0.00000000E+00
  0.00000000E+00  0.00000000E+00  0.00000000E+00
  0.00000000E+00  0.00000000E+00  0.00000000E+00
  0.00000000E+00  0.00000000E+00  0.00000000E+00
  0.00000000E+00  0.00000000E+00  0.00000000E+00
  0.00000000E+00  0.00000000E+00  0.00000000E+00
  0.00000000E+00  0.00000000E+00  0.00000000E+00
  0.00000000E+00  0.00000000E+00  0.00000000E+00
  0.00000000E+00  0.00000000E+00  0.00000000E+00
  0.00000000E+00  0.00000000E+00  0.00000000E+00
  0.00000000E+00  0.00000000E+00  0.00000000E+00
  0.00000000E+00  0.00000000E+00  0.00000000E+00
  0.00000000E+00  0.00000000E+00  0.00000000E+00
  0.00000000E+00  0.00000000E+00  0.00000000E+00
  0.00000000E+00  0.00000000E+00  0.00000000E+00
  0.00000000E+00  0.00000000E+00  0.00000000E+00
  0.00000000E+00  0.00000000E+00  0.00000000E+00
  0.00000000E+00  0.00000000E+00  0.00000000E+00
  0.00000000E+00  0.00000000E+00  0.00000000E+00
  0.00000000E+00  0.00000000E+00  0.00000000E+00
  0.00000000E+00  0.00000000E+00  0.00000000E+00
  0.00000000E+00  0.00000000E+00  0.00000000E+00
  0.00000000E+00  0.00000000E+00  0.00000000E+00
  0.00000000E+00  0.00000000E+00  0.00000000E+00
  0.00000000E+00  0.00000000E+00  0.00000000E+00
  0.00000000E+00  0.00000000E+00  0.00000000E+00
  0.00000000E+00  0.00000000E+00  0.00000000E+00
  0.00000000E+00  0.00000000E+00  0.00000000E+00
  0.00000000E+00  0.00000000E+00  0.00000000E+00
  0.00000000E+00  0.00000000E+00  0.00000000E+00
  0.00000000E+00  0.00000000E+00  0.00000000E+00
  0.00000000E+00  0.00000000E+00  0.00000000E+00
  0.00000000E+00  0.00000000E+00  0.00000000E+00
  0.00000000E+00  0.00000000E+00  0.00000000E+00
  0.00000000E+00  0.00000000E+00  0.00000000E+00
  0.00000000E+00  0.00000000E+00  0.00000000E+00
  0.00000000E+00  0.00000000E+00  0.00000000E+00
  0.00000000E+00  0.00000000E+00  0.00000000E+00
  0.00000000E+00  0.00000000E+00  0.00000000E+00
  0.00000000E+00  0.00000000E+00  0.00000000E+00
