Hf  O  F  H                             
   1.00000000000000     
    13.7225301000000002    0.0000000000000000    0.0000000000000000
     0.0000000000000000   13.7225301000000002    0.0000000000000000
     0.0000000000000000    0.0000000000000000   32.7225301000000002
   Hf   O    F    H 
    72   144     1     1
Direct
  0.1338822527252877  0.8678446041066058  0.4163801537842339
  0.8654979468768060  0.9481223838539644  0.5053500166096034
  0.0209309436183018  0.6251533373497979  0.3954532974555497
  0.8727903714992592  0.6425384565548493  0.3037926110900879
  0.0738366377519079  0.7877583946263831  0.3162684700236401
  0.4082576395396841  0.9430693837006080  0.5528441375652120
  0.6286792998684924  0.5161212386476675  0.2775273978732391
  0.6801738662628266  0.7510382069087075  0.2785040699795760
  0.0405823898558751  0.6481046908044404  0.6708881734486604
  0.2814588804390140  0.0581324888280328  0.4134066009954015
  0.9279645593767307  0.7409672165515311  0.4683090448011181
  0.2856582553188955  0.7627005624997144  0.2963241843789063
  0.1000497289747909  0.5288382239175281  0.3103888507952310
  0.3428755815466488  0.1654736704899870  0.5245337725094709
  0.5238285901465031  0.9807649551630355  0.6668542069167726
  0.2715890868055783  0.6402977305358604  0.6538186809332206
  0.5533097370564863  0.3662671674471940  0.5386791747629276
  0.4654960114599489  0.9909477002932895  0.3227849312402602
  0.2837642674320482  0.6597306539964960  0.3876144568561551
  0.8969828732877021  0.7184357084271649  0.5666811374812252
  0.8353249378172276  0.4309928582664997  0.3151972229999396
  0.9132612380785774  0.1013495771679344  0.5762384553043836
  0.0098625097421922  0.3550797998544049  0.3907930843797175
  0.9175394386237089  0.4964258257541346  0.5965311191673867
  0.1418064349589886  0.5360856268827253  0.5850560550590218
  0.1790774930365220  0.2506293539791782  0.4462682905114422
  0.1148046049525045  0.2886961892630800  0.5441342245673551
  0.7465087024160727  0.5561789597780037  0.5155351949121058
  0.3447079143204547  0.1425871980748519  0.6367956525464448
  0.6579340796045406  0.1522136483851276  0.6124132510504851
  0.5271692931551782  0.3038660176757302  0.6780687985053343
  0.2656509901990662  0.4508323123316776  0.4962126680138007
  0.3113465319645529  0.3582951352104981  0.6077533954941411
  0.8565062640697336  0.9801342619748081  0.4088953714070466
  0.1597700067149292  0.0437417754076535  0.5083753686035937
  0.8149844367466941  0.7008484715557247  0.6694945849099867
  0.4916286386518664  0.6452857822823511  0.3479255319585574
  0.0119971732894127  0.4735949540726196  0.5013239518781505
  0.8799062631726615  0.9228420569404370  0.3029842335275367
  0.4158671988577687  0.8185041223205503  0.4427733994756919
  0.4247457493498649  0.3328417444368211  0.4477016725364398
  0.6025441973778146  0.8072359664280883  0.5023005104799961
  0.3445933719542418  0.7070222581838187  0.5382998709338270
  0.1455411734572625  0.8220089204168620  0.5774887641129439
  0.6782885313594814  0.2319176877749901  0.4313215802616707
  0.5591682961400931  0.0037207219720855  0.4153408690625847
  0.3050680984496173  0.9142383856890912  0.6387954235395485
  0.4927657525993328  0.5588368257582239  0.4804641799908339
  0.5901852557006046  0.1484282414300308  0.5169634813425289
  0.0626906443067129  0.0570641330854215  0.3628247712944756
  0.8081954927695134  0.4174031170996498  0.4332862991934789
  0.6981719796986353  0.9280062653598338  0.5772366395721859
  0.4895284616650384  0.7612210473050003  0.6554214182691266
  0.6803266918571605  0.8452151734072351  0.3662745544114731
  0.2545367882403843  0.9988500974950972  0.3087476241898086
  0.4522489384997138  0.5628696036232455  0.5995855417108151
  0.6512315994101736  0.2865585640420756  0.2893900221919482
  0.6583501646123755  0.6821065913555183  0.5963967130473913
  0.0001135117888112  0.8971504851510699  0.6468992454843535
  0.7461407473667124  0.6337653726593856  0.3937602911380085
  0.2928973542673038  0.4248296044756774  0.3712049434577313
  0.6928097160145560  0.0434048714550584  0.2674370773061585
  0.5670977657879870  0.4259843495346392  0.3737922932992581
  0.4311561553912392  0.2183034159646408  0.3632541181909313
  0.6785966916738903  0.4613677788358400  0.6286319505879078
  0.1629372027396452  0.6691435871023577  0.4768219468218513
  0.8343343545316858  0.2945225536668872  0.6485313773466496
  0.8521176607190345  0.1963400481822704  0.3416225866901333
  0.0910488032678224  0.1776844457897895  0.6313386452675160
  0.8140189641885468  0.3315898452915292  0.5359097066291080
  0.9383107927357017  0.1879659469420240  0.4798651186015711
  0.1614263015693886  0.2568951156794204  0.3302420718202947
  0.3039661516714312  0.2889433861165868  0.3352084568805422
  0.9328778130791927  0.8244107122259913  0.5216130731636115
  0.3601331670060652  0.8834281809648934  0.3184709858264900
  0.5498312864373706  0.8886494559673603  0.4551222924956930
  0.0511727317749381  0.4264175232915855  0.5621468344749466
  0.0415622542692260  0.4931123137333034  0.3675156551080001
  0.0045630788976343  0.0510566364757500  0.6240923907430296
  0.3097477765851033  0.6083014012672554  0.4843305864439214
  0.1859772680551571  0.9726959525033275  0.4525826827333545
  0.0116602286183933  0.2342036554807838  0.3455579104809132
  0.3687367501174682  0.0468000600585019  0.2802380776795464
  0.1250859016325098  0.9304802233549411  0.5420692372053492
  0.4631600299506401  0.8946792797797793  0.6235001535756189
  0.7030049056620742  0.9680880948671003  0.4038765150930266
  0.3034139219865408  0.0118693471350355  0.5209167379064901
  0.5294202173444744  0.3068395962417516  0.7320310264179778
  0.0505967072156139  0.7889584660997268  0.6786359878268203
  0.7556646675121808  0.5588264477892276  0.4454500118062693
  0.8838382907142839  0.3445463077444721  0.5907536950847312
  0.3583298858942854  0.2244010399902586  0.5819592032188431
  0.8382917292269348  0.9756513145480582  0.5677299905693399
  0.2621421597635008  0.7730055657965013  0.4363795298051523
  0.0204694250798720  0.9400593943759460  0.3215914225537317
  0.7239831148097446  0.8946017851389843  0.5118276018548463
  0.3862390113106642  0.5546726271326906  0.3787133328218895
  0.9377502243160241  0.7836097432783438  0.2880345272546758
  0.8220940053334875  0.2682160945814815  0.4490907683724214
  0.0723346145792058  0.7861422485176406  0.4618969775283321
  0.1477702490568746  0.6731547442611883  0.6169806620748828
  0.8703210893812093  0.3493236087381735  0.3680918171326605
  0.5079106352598137  0.7049664703385004  0.4662341546792989
  0.7887689734820239  0.5918530091053005  0.5757411830125642
  0.2027920478871280  0.1595127457673526  0.5473327232221108
  0.5445539951194295  0.2871299063080813  0.3300166432351392
  0.9534935869812576  0.5038180748076575  0.2901336579999915
  0.6534620738157492  0.6831681774750751  0.5275661513863190
  0.5346854311915985  0.2598712832028436  0.4148193131577895
  0.0015614730043402  0.6087713334390605  0.5601689921818188
  0.9616315199671116  0.3201052395898988  0.5098422722485139
  0.4725406824945531  0.2524142186020676  0.5028919977744569
  0.4177943300591914  0.4329418075981961  0.4991219926112090
  0.8907322482282642  0.6828680024203867  0.4119138345278681
  0.4195488474483336  0.7353136705806669  0.3912387978680055
  0.5639026748948046  0.1412431691322602  0.6735066747453419
  0.7757677772386328  0.5429409862344533  0.2779854384233831
  0.8684724283578292  0.8703935498298400  0.4496219101665255
  0.5860335078166454  0.2364842534260195  0.5703927676136488
  0.6558429529095442  0.2743216461853538  0.4964016721984217
  0.8090985351069618  0.1622936026503967  0.6162569613035134
  0.1838448991866967  0.8740440420648896  0.2846569221544455
  0.3403920206904716  0.0805404957636533  0.3547755453867736
  0.7171071308096517  0.6020573501285837  0.6486518902175226
  0.3144441452287759  0.6330503595161090  0.5891644748337890
  0.5205367967309029  0.5127229773940922  0.3181928468347311
  0.8884583094009317  0.9171043288581416  0.6875089605568661
  0.1980819312807154  0.7336503213380960  0.5305037814676830
  0.4692212615508795  0.0728971026793247  0.5318855376527566
  0.1299363881802335  0.3770692766153727  0.4839998050907092
  0.1928592084642268  0.9633277541693537  0.3706541167887229
  0.6372937849850404  0.7633834991367081  0.6482157961856873
  0.6714975729609344  0.0727054578897756  0.5579431483014399
  0.2227296739789893  0.5437983645866183  0.3462486067360149
  0.3951221954005184  0.6740520818328501  0.3042102952181208
  0.4447727519127517  0.4139699432477700  0.5827066247770311
  0.0170845813792557  0.9625512385908706  0.4084475123004394
  0.9745900462540412  0.0539895654161305  0.5192021686505944
  0.2588875799781791  0.4908904125767923  0.6289786761940369
  0.5733883656685358  0.9770806770737882  0.2841064251674413
  0.8040702536682685  0.2884338096192471  0.2950689072489793
  0.0183841255693096  0.6111528306738798  0.4667113598079550
  0.0197908998356759  0.2500132038658222  0.4314002764448286
  0.5061486431434413  0.7096079197289042  0.5963029760257303
  0.4269175702391916  0.3703310326151821  0.3783710442410818
  0.2587732567174616  0.1304747387113809  0.4682098068309231
  0.8413896425460970  0.1861796854242647  0.5316311449534241
  0.1736131922021322  0.2896188767009906  0.6078921129906810
  0.0232869204479218  0.2030394612307124  0.5764933606728427
  0.9097384816130354  0.6599871169887737  0.6270998556782302
  0.7499408655607565  0.8862055877939379  0.2721669770489090
  0.7648842129164524  0.7894941891053799  0.5852231218361876
  0.5085749929073434  0.1354302915413246  0.6331280483568219
  0.8450111742841503  0.6677020004327181  0.5073343537697811
  0.3067550348636032  0.8400881105956642  0.5799590025016916
  0.3798143082417573  0.0214167569170968  0.6750064007553578
  0.3468507817980430  0.2161438181425547  0.4152754268540744
  0.6155527200243374  0.1050703322805329  0.4566855482248504
  0.1497961155931928  0.5460050790261601  0.5152056529074377
  0.5129320248957753  0.4568432797981330  0.4339217350294399
  0.1342665616357980  0.3847230872384858  0.3028640096768305
  0.5455951300529973  0.9077609364017458  0.3674277235298619
  0.8352866464536206  0.5483727224762344  0.3559046041310793
  0.5968797245302342  0.5459050263109173  0.5909606835662481
  0.0107777344270638  0.6484901205865453  0.3317984134419699
  0.6932484349221403  0.3941637519092251  0.5679490557015006
  0.2250115912658584  0.7567961022957486  0.3504821208855464
  0.8814341419632686  0.4783653074707014  0.5336497875495730
  0.8542479550855955  0.0633270309665794  0.4590773792434729
  0.3433284830562269  0.0267076606357775  0.5979657548310952
  0.6845758722868384  0.4215098935513384  0.3232392335643137
  0.7431207983593414  0.1818724286033267  0.3785627137870651
  0.5197111723453552  0.0938760191739225  0.3665655160779676
  0.0001808666221222  0.8155786372188630  0.5946068036031550
  0.3773635149251099  0.2850231030587718  0.6572620760110520
  0.3991697769921947  0.9655407011981696  0.4244425461171268
  0.6130954350910600  0.5745535897154668  0.3794737295210394
  0.6489513216715266  0.1736785012665084  0.2525370461732622
  0.6884722642079609  0.7596094587548611  0.4123101150372050
  0.8257865100199150  0.8941360242875580  0.3561348222499006
  0.9552887509086211  0.4428829825677428  0.4386197066230078
  0.8521258738114842  0.8504194053416169  0.6545716416924976
  0.6018535974260927  0.4938044524640796  0.5094151227721976
  0.0410340538741682  0.5159608459280393  0.6313255462497384
  0.4253481183501506  0.6176405212411047  0.6580001539416401
  0.6182235572760063  0.6458248023623867  0.2479513177612512
  0.5594048871642758  0.4401058520086898  0.6592922973914270
  0.5880147875439163  0.7538672506315233  0.3263074106887542
  0.7632167367801560  0.7199112195288321  0.3333066436886332
  0.6855317595790440  0.3723584596384969  0.4050071019292144
  0.7658473521617765  0.4185283529070112  0.4895791836134804
  0.2933869282331147  0.4178353455385267  0.4332161013696588
  0.9117899403145353  0.6469499472019755  0.7048646695340219
  0.5204284029537718  0.8654892075054046  0.6991529039971264
  0.8272520667774418  0.0659241469459367  0.2955877912246008
  0.1600661220455174  0.1450266808797628  0.3958877519033465
  0.2090078464315590  0.1205411532979281  0.6547275755165360
  0.5630156565101987  0.8845561639256431  0.5520578867639222
  0.1618934856909141  0.3366185492253689  0.3863802826205396
  0.0910706570345068  0.1829390758495439  0.4914102360470461
  0.2392928053259246  0.4103318940122356  0.5550427523567224
  0.9894822345983135  0.2515738861280845  0.6650536563304383
  0.0557256446468870  0.7732090448335501  0.3789586146475096
  0.9159926673707680  0.0793617278267595  0.3685123498604391
  0.6498838331844856  0.9992515141822785  0.6293116446110479
  0.4477474544371456  0.6013963725841741  0.5375342592670781
  0.8241291455970667  0.4429757958676921  0.6463192307277281
  0.1624884315916747  0.6129907843067877  0.4177976360827884
  0.4039871852065917  0.8277365231909845  0.5084022215794168
  0.1704730760382646  0.6160326301221256  0.6947140766051991
  0.3287026020170692  0.7810423287818912  0.6632055878674016
  0.1564921964676904  0.6743810841825689  0.2845744338368224
  0.1512228462134856  0.1108401036007349  0.3122054901388799
  0.6828153086696644  0.2900754008030805  0.6451567388672709
  0.1602547956228939  0.9044424804243261  0.6302013225115511
  0.2905458303958913  0.2943434089644081  0.4906433454488982
  0.8373983238368286  0.2766018710296206  0.7077594542162312
  0.9817569595502955  0.2513435552334016  0.6947920675164295
 
  0.00000000E+00  0.00000000E+00  0.00000000E+00
  0.00000000E+00  0.00000000E+00  0.00000000E+00
  0.00000000E+00  0.00000000E+00  0.00000000E+00
  0.00000000E+00  0.00000000E+00  0.00000000E+00
  0.00000000E+00  0.00000000E+00  0.00000000E+00
  0.00000000E+00  0.00000000E+00  0.00000000E+00
  0.00000000E+00  0.00000000E+00  0.00000000E+00
  0.00000000E+00  0.00000000E+00  0.00000000E+00
  0.00000000E+00  0.00000000E+00  0.00000000E+00
  0.00000000E+00  0.00000000E+00  0.00000000E+00
  0.00000000E+00  0.00000000E+00  0.00000000E+00
  0.00000000E+00  0.00000000E+00  0.00000000E+00
  0.00000000E+00  0.00000000E+00  0.00000000E+00
  0.00000000E+00  0.00000000E+00  0.00000000E+00
  0.00000000E+00  0.00000000E+00  0.00000000E+00
  0.00000000E+00  0.00000000E+00  0.00000000E+00
  0.00000000E+00  0.00000000E+00  0.00000000E+00
  0.00000000E+00  0.00000000E+00  0.00000000E+00
  0.00000000E+00  0.00000000E+00  0.00000000E+00
  0.00000000E+00  0.00000000E+00  0.00000000E+00
  0.00000000E+00  0.00000000E+00  0.00000000E+00
  0.00000000E+00  0.00000000E+00  0.00000000E+00
  0.00000000E+00  0.00000000E+00  0.00000000E+00
  0.00000000E+00  0.00000000E+00  0.00000000E+00
  0.00000000E+00  0.00000000E+00  0.00000000E+00
  0.00000000E+00  0.00000000E+00  0.00000000E+00
  0.00000000E+00  0.00000000E+00  0.00000000E+00
  0.00000000E+00  0.00000000E+00  0.00000000E+00
  0.00000000E+00  0.00000000E+00  0.00000000E+00
  0.00000000E+00  0.00000000E+00  0.00000000E+00
  0.00000000E+00  0.00000000E+00  0.00000000E+00
  0.00000000E+00  0.00000000E+00  0.00000000E+00
  0.00000000E+00  0.00000000E+00  0.00000000E+00
  0.00000000E+00  0.00000000E+00  0.00000000E+00
  0.00000000E+00  0.00000000E+00  0.00000000E+00
  0.00000000E+00  0.00000000E+00  0.00000000E+00
  0.00000000E+00  0.00000000E+00  0.00000000E+00
  0.00000000E+00  0.00000000E+00  0.00000000E+00
  0.00000000E+00  0.00000000E+00  0.00000000E+00
  0.00000000E+00  0.00000000E+00  0.00000000E+00
  0.00000000E+00  0.00000000E+00  0.00000000E+00
  0.00000000E+00  0.00000000E+00  0.00000000E+00
  0.00000000E+00  0.00000000E+00  0.00000000E+00
  0.00000000E+00  0.00000000E+00  0.00000000E+00
  0.00000000E+00  0.00000000E+00  0.00000000E+00
  0.00000000E+00  0.00000000E+00  0.00000000E+00
  0.00000000E+00  0.00000000E+00  0.00000000E+00
  0.00000000E+00  0.00000000E+00  0.00000000E+00
  0.00000000E+00  0.00000000E+00  0.00000000E+00
  0.00000000E+00  0.00000000E+00  0.00000000E+00
  0.00000000E+00  0.00000000E+00  0.00000000E+00
  0.00000000E+00  0.00000000E+00  0.00000000E+00
  0.00000000E+00  0.00000000E+00  0.00000000E+00
  0.00000000E+00  0.00000000E+00  0.00000000E+00
  0.00000000E+00  0.00000000E+00  0.00000000E+00
  0.00000000E+00  0.00000000E+00  0.00000000E+00
  0.00000000E+00  0.00000000E+00  0.00000000E+00
  0.00000000E+00  0.00000000E+00  0.00000000E+00
  0.00000000E+00  0.00000000E+00  0.00000000E+00
  0.00000000E+00  0.00000000E+00  0.00000000E+00
  0.00000000E+00  0.00000000E+00  0.00000000E+00
  0.00000000E+00  0.00000000E+00  0.00000000E+00
  0.00000000E+00  0.00000000E+00  0.00000000E+00
  0.00000000E+00  0.00000000E+00  0.00000000E+00
  0.00000000E+00  0.00000000E+00  0.00000000E+00
  0.00000000E+00  0.00000000E+00  0.00000000E+00
  0.00000000E+00  0.00000000E+00  0.00000000E+00
  0.00000000E+00  0.00000000E+00  0.00000000E+00
  0.00000000E+00  0.00000000E+00  0.00000000E+00
  0.00000000E+00  0.00000000E+00  0.00000000E+00
  0.00000000E+00  0.00000000E+00  0.00000000E+00
  0.00000000E+00  0.00000000E+00  0.00000000E+00
  0.00000000E+00  0.00000000E+00  0.00000000E+00
  0.00000000E+00  0.00000000E+00  0.00000000E+00
  0.00000000E+00  0.00000000E+00  0.00000000E+00
  0.00000000E+00  0.00000000E+00  0.00000000E+00
  0.00000000E+00  0.00000000E+00  0.00000000E+00
  0.00000000E+00  0.00000000E+00  0.00000000E+00
  0.00000000E+00  0.00000000E+00  0.00000000E+00
  0.00000000E+00  0.00000000E+00  0.00000000E+00
  0.00000000E+00  0.00000000E+00  0.00000000E+00
  0.00000000E+00  0.00000000E+00  0.00000000E+00
  0.00000000E+00  0.00000000E+00  0.00000000E+00
  0.00000000E+00  0.00000000E+00  0.00000000E+00
  0.00000000E+00  0.00000000E+00  0.00000000E+00
  0.00000000E+00  0.00000000E+00  0.00000000E+00
  0.00000000E+00  0.00000000E+00  0.00000000E+00
  0.00000000E+00  0.00000000E+00  0.00000000E+00
  0.00000000E+00  0.00000000E+00  0.00000000E+00
  0.00000000E+00  0.00000000E+00  0.00000000E+00
  0.00000000E+00  0.00000000E+00  0.00000000E+00
  0.00000000E+00  0.00000000E+00  0.00000000E+00
  0.00000000E+00  0.00000000E+00  0.00000000E+00
  0.00000000E+00  0.00000000E+00  0.00000000E+00
  0.00000000E+00  0.00000000E+00  0.00000000E+00
  0.00000000E+00  0.00000000E+00  0.00000000E+00
  0.00000000E+00  0.00000000E+00  0.00000000E+00
  0.00000000E+00  0.00000000E+00  0.00000000E+00
  0.00000000E+00  0.00000000E+00  0.00000000E+00
  0.00000000E+00  0.00000000E+00  0.00000000E+00
  0.00000000E+00  0.00000000E+00  0.00000000E+00
  0.00000000E+00  0.00000000E+00  0.00000000E+00
  0.00000000E+00  0.00000000E+00  0.00000000E+00
  0.00000000E+00  0.00000000E+00  0.00000000E+00
  0.00000000E+00  0.00000000E+00  0.00000000E+00
  0.00000000E+00  0.00000000E+00  0.00000000E+00
  0.00000000E+00  0.00000000E+00  0.00000000E+00
  0.00000000E+00  0.00000000E+00  0.00000000E+00
  0.00000000E+00  0.00000000E+00  0.00000000E+00
  0.00000000E+00  0.00000000E+00  0.00000000E+00
  0.00000000E+00  0.00000000E+00  0.00000000E+00
  0.00000000E+00  0.00000000E+00  0.00000000E+00
  0.00000000E+00  0.00000000E+00  0.00000000E+00
  0.00000000E+00  0.00000000E+00  0.00000000E+00
  0.00000000E+00  0.00000000E+00  0.00000000E+00
  0.00000000E+00  0.00000000E+00  0.00000000E+00
  0.00000000E+00  0.00000000E+00  0.00000000E+00
  0.00000000E+00  0.00000000E+00  0.00000000E+00
  0.00000000E+00  0.00000000E+00  0.00000000E+00
  0.00000000E+00  0.00000000E+00  0.00000000E+00
  0.00000000E+00  0.00000000E+00  0.00000000E+00
  0.00000000E+00  0.00000000E+00  0.00000000E+00
  0.00000000E+00  0.00000000E+00  0.00000000E+00
  0.00000000E+00  0.00000000E+00  0.00000000E+00
  0.00000000E+00  0.00000000E+00  0.00000000E+00
  0.00000000E+00  0.00000000E+00  0.00000000E+00
  0.00000000E+00  0.00000000E+00  0.00000000E+00
  0.00000000E+00  0.00000000E+00  0.00000000E+00
  0.00000000E+00  0.00000000E+00  0.00000000E+00
  0.00000000E+00  0.00000000E+00  0.00000000E+00
  0.00000000E+00  0.00000000E+00  0.00000000E+00
  0.00000000E+00  0.00000000E+00  0.00000000E+00
  0.00000000E+00  0.00000000E+00  0.00000000E+00
  0.00000000E+00  0.00000000E+00  0.00000000E+00
  0.00000000E+00  0.00000000E+00  0.00000000E+00
  0.00000000E+00  0.00000000E+00  0.00000000E+00
  0.00000000E+00  0.00000000E+00  0.00000000E+00
  0.00000000E+00  0.00000000E+00  0.00000000E+00
  0.00000000E+00  0.00000000E+00  0.00000000E+00
  0.00000000E+00  0.00000000E+00  0.00000000E+00
  0.00000000E+00  0.00000000E+00  0.00000000E+00
  0.00000000E+00  0.00000000E+00  0.00000000E+00
  0.00000000E+00  0.00000000E+00  0.00000000E+00
  0.00000000E+00  0.00000000E+00  0.00000000E+00
  0.00000000E+00  0.00000000E+00  0.00000000E+00
  0.00000000E+00  0.00000000E+00  0.00000000E+00
  0.00000000E+00  0.00000000E+00  0.00000000E+00
  0.00000000E+00  0.00000000E+00  0.00000000E+00
  0.00000000E+00  0.00000000E+00  0.00000000E+00
  0.00000000E+00  0.00000000E+00  0.00000000E+00
  0.00000000E+00  0.00000000E+00  0.00000000E+00
  0.00000000E+00  0.00000000E+00  0.00000000E+00
  0.00000000E+00  0.00000000E+00  0.00000000E+00
  0.00000000E+00  0.00000000E+00  0.00000000E+00
  0.00000000E+00  0.00000000E+00  0.00000000E+00
  0.00000000E+00  0.00000000E+00  0.00000000E+00
  0.00000000E+00  0.00000000E+00  0.00000000E+00
  0.00000000E+00  0.00000000E+00  0.00000000E+00
  0.00000000E+00  0.00000000E+00  0.00000000E+00
  0.00000000E+00  0.00000000E+00  0.00000000E+00
  0.00000000E+00  0.00000000E+00  0.00000000E+00
  0.00000000E+00  0.00000000E+00  0.00000000E+00
  0.00000000E+00  0.00000000E+00  0.00000000E+00
  0.00000000E+00  0.00000000E+00  0.00000000E+00
  0.00000000E+00  0.00000000E+00  0.00000000E+00
  0.00000000E+00  0.00000000E+00  0.00000000E+00
  0.00000000E+00  0.00000000E+00  0.00000000E+00
  0.00000000E+00  0.00000000E+00  0.00000000E+00
  0.00000000E+00  0.00000000E+00  0.00000000E+00
  0.00000000E+00  0.00000000E+00  0.00000000E+00
  0.00000000E+00  0.00000000E+00  0.00000000E+00
  0.00000000E+00  0.00000000E+00  0.00000000E+00
  0.00000000E+00  0.00000000E+00  0.00000000E+00
  0.00000000E+00  0.00000000E+00  0.00000000E+00
  0.00000000E+00  0.00000000E+00  0.00000000E+00
  0.00000000E+00  0.00000000E+00  0.00000000E+00
  0.00000000E+00  0.00000000E+00  0.00000000E+00
  0.00000000E+00  0.00000000E+00  0.00000000E+00
  0.00000000E+00  0.00000000E+00  0.00000000E+00
  0.00000000E+00  0.00000000E+00  0.00000000E+00
  0.00000000E+00  0.00000000E+00  0.00000000E+00
  0.00000000E+00  0.00000000E+00  0.00000000E+00
  0.00000000E+00  0.00000000E+00  0.00000000E+00
  0.00000000E+00  0.00000000E+00  0.00000000E+00
  0.00000000E+00  0.00000000E+00  0.00000000E+00
  0.00000000E+00  0.00000000E+00  0.00000000E+00
  0.00000000E+00  0.00000000E+00  0.00000000E+00
  0.00000000E+00  0.00000000E+00  0.00000000E+00
  0.00000000E+00  0.00000000E+00  0.00000000E+00
  0.00000000E+00  0.00000000E+00  0.00000000E+00
  0.00000000E+00  0.00000000E+00  0.00000000E+00
  0.00000000E+00  0.00000000E+00  0.00000000E+00
  0.00000000E+00  0.00000000E+00  0.00000000E+00
  0.00000000E+00  0.00000000E+00  0.00000000E+00
  0.00000000E+00  0.00000000E+00  0.00000000E+00
  0.00000000E+00  0.00000000E+00  0.00000000E+00
  0.00000000E+00  0.00000000E+00  0.00000000E+00
  0.00000000E+00  0.00000000E+00  0.00000000E+00
  0.00000000E+00  0.00000000E+00  0.00000000E+00
  0.00000000E+00  0.00000000E+00  0.00000000E+00
  0.00000000E+00  0.00000000E+00  0.00000000E+00
  0.00000000E+00  0.00000000E+00  0.00000000E+00
  0.00000000E+00  0.00000000E+00  0.00000000E+00
  0.00000000E+00  0.00000000E+00  0.00000000E+00
  0.00000000E+00  0.00000000E+00  0.00000000E+00
  0.00000000E+00  0.00000000E+00  0.00000000E+00
  0.00000000E+00  0.00000000E+00  0.00000000E+00
  0.00000000E+00  0.00000000E+00  0.00000000E+00
  0.00000000E+00  0.00000000E+00  0.00000000E+00
  0.00000000E+00  0.00000000E+00  0.00000000E+00
  0.00000000E+00  0.00000000E+00  0.00000000E+00
  0.00000000E+00  0.00000000E+00  0.00000000E+00
  0.00000000E+00  0.00000000E+00  0.00000000E+00
  0.00000000E+00  0.00000000E+00  0.00000000E+00
  0.00000000E+00  0.00000000E+00  0.00000000E+00
  0.00000000E+00  0.00000000E+00  0.00000000E+00
  0.00000000E+00  0.00000000E+00  0.00000000E+00
  0.00000000E+00  0.00000000E+00  0.00000000E+00
