Hf  O  F  H                             
   1.00000000000000     
    13.7225301000000002    0.0000000000000000    0.0000000000000000
     0.0000000000000000   13.7225301000000002    0.0000000000000000
     0.0000000000000000    0.0000000000000000   32.7225301000000002
   Hf   O    F    H 
    72   144     2     2
Direct
  0.1348400158231920  0.8686363892239708  0.4154584610241467
  0.8660766225603127  0.9479526184344532  0.5035469014402700
  0.0216397259075701  0.6286212360741442  0.3936878195417655
  0.8738900612545742  0.6437864513641305  0.3023792530471299
  0.0754583023291938  0.7888954542376237  0.3144185782642154
  0.4077785532880239  0.9443938147646458  0.5536581726250943
  0.6298666924675480  0.5178966690444429  0.2766477686512010
  0.6813376409660203  0.7533956031022321  0.2773665619883075
  0.0332593178011428  0.6486099870902705  0.6700829133286615
  0.2822562323708087  0.0592897817669697  0.4125134250519177
  0.9261890148045526  0.7406876289929570  0.4672381299687631
  0.2878294332203173  0.7637427393179301  0.2954140181171101
  0.1014187333659929  0.5289578018193851  0.3097033964646522
  0.3428084389585787  0.1685198776399306  0.5245192804608837
  0.5223055385229568  0.9776053429050890  0.6622998688293261
  0.2691123679053954  0.6365932333639732  0.6524661465068384
  0.5485904482457534  0.3692222189110045  0.5414914949427048
  0.4671511831568267  0.9923845024743977  0.3225081869345697
  0.2844867393064662  0.6608880448648277  0.3872443729522868
  0.8953265767097818  0.7226955019082559  0.5662386645909889
  0.8365355624282138  0.4322446294134458  0.3140202087900063
  0.9153979248376648  0.0972540729526652  0.5742026998581361
  0.0114196378625159  0.3559485435733926  0.3895273627311956
  0.9162156187531144  0.4980836395128925  0.5925296970138856
  0.1392255244507200  0.5382214460642558  0.5843984945770228
  0.1793749302621320  0.2505178741017428  0.4455044138508676
  0.1113369507420013  0.2889761523360938  0.5445176924509904
  0.7455933496511964  0.5578851133784812  0.5138290180206951
  0.3349607466936189  0.1372559393497969  0.6371777683989926
  0.6577749610534296  0.1517742348063505  0.6116356186407759
  0.5196033841738137  0.2903932329740405  0.6790463491755820
  0.2644717045242335  0.4511556069281478  0.4956105668049256
  0.3030303899898064  0.3558079429598952  0.6085041759977486
  0.8575091416621008  0.9811099243556868  0.4073124342134209
  0.1614689172501206  0.0447798979792271  0.5077325189354855
  0.8079143672292319  0.7030385120364128  0.6693234120029813
  0.4921818047050557  0.6477322498618588  0.3469023850043563
  0.0113756817958580  0.4712406898013574  0.4989443454538360
  0.8810651314589573  0.9244120410572512  0.3014717990702757
  0.4156510614266754  0.8205314692213042  0.4424537635561839
  0.4254538748348970  0.3364547648857819  0.4475831554036844
  0.6054105718317988  0.8046863163376059  0.5006068440694204
  0.3367263397525282  0.7111952227092684  0.5365867836146374
  0.1430183150934275  0.8237300960923012  0.5778566724261950
  0.6797466106186613  0.2323560238321353  0.4315217070939025
  0.5596223901049101  0.0045275248945740  0.4151511768949924
  0.3107725795122236  0.9042213029438515  0.6382874242420395
  0.4935763396875045  0.5615873775069953  0.4810676913718225
  0.5899014263472556  0.1495383334096770  0.5168511773115378
  0.0640535847635185  0.0571405128470115  0.3613878317237533
  0.8081398901170908  0.4201547908576351  0.4310678801668552
  0.6969501113026518  0.9265233144366201  0.5750237588695937
  0.5049093114854878  0.7347790506823395  0.6686317255134071
  0.6803215972518496  0.8475115232917806  0.3653015083253349
  0.2568232412324762  0.9999026515288245  0.3077872468338800
  0.4477271394115508  0.5655156205685736  0.5971366436081317
  0.6517947333199229  0.2881851410300002  0.2891779105704368
  0.6589731481624199  0.6754039803413958  0.5980787020150539
  0.9985663826976111  0.8982501065222162  0.6477408205744742
  0.7470682929493061  0.6365397391229306  0.3919713387445147
  0.2943531402309305  0.4265619108262754  0.3706255384416940
  0.6939408130555628  0.0452565979812067  0.2666757630270177
  0.5679203506046649  0.4288436102746518  0.3733038546046369
  0.4329324286497995  0.2198963098313675  0.3633644389882050
  0.6852157263543455  0.4533150556189545  0.6282838997985396
  0.1595156269208630  0.6688921019349051  0.4759220449331165
  0.8474822659940525  0.2915375305671127  0.6393566196054330
  0.8536388689001538  0.1980399908757811  0.3411477859543742
  0.0794722555543010  0.1822406498360900  0.6343685470153649
  0.8076705514937089  0.3281583373224597  0.5295024373610784
  0.9401244401634948  0.1866854201977075  0.4783747711616715
  0.1642139533272956  0.2565659831965092  0.3303673742097852
  0.3064184365003008  0.2905371799485863  0.3348444339608634
  0.9347823675804781  0.8253960717506864  0.5202752384393221
  0.3617718720148392  0.8849520759494388  0.3179704891527028
  0.5493537944164694  0.8899978428088110  0.4550288410632445
  0.0479179492438663  0.4288194584252665  0.5608309481300571
  0.0418790480571551  0.4949476021631032  0.3666966707771725
  0.0025168141037314  0.0500903307241663  0.6241458146708001
  0.3067877504772756  0.6108846074473415  0.4845321858204451
  0.1862070250309854  0.9734839714341835  0.4518595669662261
  0.0127008289922907  0.2357807819007505  0.3444324034080998
  0.3713182580944661  0.0478872653746422  0.2795105341821016
  0.1271878703489556  0.9346678964379994  0.5432835621896563
  0.4613189828843939  0.9092305215039264  0.6159871876267754
  0.7034058426560432  0.9695327851438823  0.4031773819685023
  0.3041639076169434  0.0163307440423601  0.5204950110860586
  0.5091964123801963  0.2852139659602901  0.7324237945076515
  0.0477154150344268  0.7882342180704770  0.6786646128958658
  0.7582470161318073  0.5624251757773949  0.4438408478460167
  0.8827151140248016  0.3428064123683754  0.5851758723374395
  0.3551469783854423  0.2238621776991432  0.5826016067327240
  0.8372744907342331  0.9731338908827805  0.5658688489086612
  0.2615528899243810  0.7742238459038119  0.4355448405422830
  0.0220276118582161  0.9414203360997521  0.3199538245179190
  0.7251432642302130  0.8929898197583254  0.5100286050590107
  0.3876237784360801  0.5564844691425447  0.3771178662488077
  0.9390350262567864  0.7848523102214758  0.2865772048946103
  0.8238303198739532  0.2724759233360111  0.4497201256631668
  0.0702085521445305  0.7857211546586947  0.4596931651228961
  0.1445696864491294  0.6741712899490415  0.6161021629355691
  0.8710465406350344  0.3506567155600521  0.3671999571622607
  0.5088082350603859  0.7066895452346320  0.4649632679621239
  0.7867874783973094  0.5871834627497485  0.5746382884693677
  0.2029498733062627  0.1655506285215603  0.5449900589457499
  0.5465797414684822  0.2899193269750784  0.3305397824708738
  0.9550015606059223  0.5043291456634464  0.2890820561996630
  0.6503335821035955  0.6797984838016327  0.5280921498106683
  0.5358980108008199  0.2612867146668417  0.4160206523818070
  0.9958071729068155  0.6120513685923147  0.5591694570986439
  0.9620315657431772  0.3191315225453226  0.5084202600858266
  0.4772019634602901  0.2590128718423613  0.5036585535204362
  0.4163902872710993  0.4388115227876903  0.5001672160501929
  0.8915963281970403  0.6860471988143972  0.4099638684767868
  0.4196288912057701  0.7367431076282683  0.3905647883031623
  0.5690529695187738  0.1358164632765423  0.6736644178637049
  0.7773599661615378  0.5439462580117443  0.2766948922126862
  0.8689340681894338  0.8709014685545320  0.4479954271058052
  0.5846809879777239  0.2372213797352213  0.5708076083559535
  0.6676216399939434  0.2681939229226562  0.4973464642810340
  0.8079303936826815  0.1596269903121164  0.6128588400480123
  0.1862691373536861  0.8753218178504968  0.2835568796384828
  0.3421320161887377  0.0821171893120237  0.3540552284369513
  0.7189680504741485  0.5923864795508176  0.6480486043575949
  0.3084848848795307  0.6289124260698133  0.5866364503588384
  0.5219865852211316  0.5146438534368405  0.3174210897876511
  0.8853494124172344  0.9182268633898474  0.6874051179186390
  0.1897554871506163  0.7354027165272209  0.5295722216767682
  0.4685013578229359  0.0755088912042488  0.5336850750150198
  0.1307533108299325  0.3752398678267548  0.4828897786119727
  0.1941589525613012  0.9644212874245645  0.3697913473991666
  0.6518135704861682  0.7571542998129105  0.6520089749903965
  0.6707403534145268  0.0728231854376991  0.5567883117397994
  0.2234752749979289  0.5451409252097827  0.3457423943889850
  0.3987773906277103  0.6765043746647671  0.3021548389949215
  0.4427152509537614  0.4136231050840374  0.5844265625391366
  0.0179101435339487  0.9636559222471672  0.4071873611518793
  0.9761192446962966  0.0513849039470167  0.5177286160759541
  0.2446740795008390  0.4885644125159914  0.6274675280106111
  0.5766280029662626  0.9769116516534246  0.2846007850324322
  0.8044077625744270  0.2893497110555722  0.2945235111819176
  0.0156676295399944  0.6109114657193813  0.4655516726513496
  0.0201128238623148  0.2499357170443220  0.4297520664412571
  0.5125087050338355  0.7017158225601176  0.6061678086023490
  0.4286372031680629  0.3721783475330717  0.3787526200172142
  0.2592379123112807  0.1316819412528403  0.4670200287940011
  0.8442251036305349  0.1833637185823832  0.5299012916867745
  0.1665428579912935  0.2907568422592150  0.6080286604408043
  0.0221138258930249  0.2008592023507972  0.5764390882100654
  0.9041374440739331  0.6652042375606260  0.6264770753324541
  0.7523131363381732  0.8877387145572700  0.2701553215206592
  0.7599168579085016  0.7874668656964919  0.5841311495734479
  0.5080715532410693  0.1421713360166967  0.6346996852549776
  0.8405703314676256  0.6724572011620650  0.5068550085664727
  0.3060445162770063  0.8347517041589100  0.5789902948873011
  0.3782587550332882  0.0180250858065282  0.6736025057648883
  0.3483749042303145  0.2183490611281897  0.4146890535891360
  0.6139392947194514  0.1060787164635786  0.4565341007875215
  0.1472893709391487  0.5453161701019427  0.5141121493585368
  0.5144141774505631  0.4607513867720324  0.4341980089812738
  0.1361940081636015  0.3850617879739825  0.3031402613694739
  0.5452841317087532  0.9085223878652964  0.3672471825649469
  0.8364237764361875  0.5494644706481554  0.3548044068486269
  0.5939314412296973  0.5355799920431801  0.5940694028997027
  0.0119583596110248  0.6497297566555622  0.3301782325963735
  0.6954730680482869  0.3901668493279922  0.5675402831546058
  0.2276794512388032  0.7570791389860492  0.3495541771714672
  0.8791271091672841  0.4781824989127468  0.5291852604629286
  0.8549106256024170  0.0640521712882968  0.4574577807156854
  0.3270850188995917  0.0251971551292024  0.5977483261384267
  0.6858717284996546  0.4238276088432937  0.3223540738588934
  0.7472279593597294  0.1821273984566888  0.3795342393657719
  0.5214143246909912  0.0954320406545020  0.3663797185007217
  0.9977815549900396  0.8194778199859527  0.5943868097652639
  0.3733806412911803  0.2849207186302913  0.6572534409322350
  0.3995833828764482  0.9672257807790176  0.4237606030264844
  0.6142169199595124  0.5768540066013397  0.3785034707663644
  0.6479209078504450  0.1751570453976427  0.2523978638894996
  0.6892220977738126  0.7617376625910111  0.4113417113770538
  0.8254880948044047  0.8963031672356154  0.3545035827826239
  0.9555028330125889  0.4418986345277326  0.4374405740531123
  0.8518384276646106  0.8516990534214346  0.6538867219433085
  0.5993522525146056  0.4939504985734086  0.5112034036805724
  0.0350968234553949  0.5192517486250829  0.6295789695316412
  0.4127145391770611  0.5910960999716873  0.6563469573172318
  0.6199418289094849  0.6476627252690759  0.2470720271327917
  0.5718099055896076  0.4348238547969853  0.6708858513976808
  0.5894283977047260  0.7562007669550069  0.3253235497271587
  0.7645833016396590  0.7214129677387601  0.3320083945167554
  0.6859077992524067  0.3721223801517023  0.4036805564138057
  0.7573186520073563  0.4215752160941305  0.4863836171046769
  0.2954130434288964  0.4239121255304948  0.4325597039620978
  0.9066149664368865  0.6485418147595942  0.7042613871065871
  0.5177705696204691  0.8648094418738405  0.6963093154944805
  0.8285364782281740  0.0673185177358249  0.2942109856938340
  0.1619337115666289  0.1472459019993783  0.3939459790172092
  0.2021580893866428  0.1304786043839400  0.6578513157740093
  0.5627824872048887  0.8807744467301114  0.5495299048516272
  0.1637662969615346  0.3382626293175948  0.3862356507830464
  0.0905901104206804  0.1815974348655951  0.4898656281411091
  0.2377691309820726  0.4052522503314065  0.5536772356511218
  0.9723901964767701  0.2501899905438104  0.6634228785382833
  0.0576448731709663  0.7754810167045554  0.3768730286088491
  0.9175411490511404  0.0796851724530847  0.3667507779607556
  0.6501681084675001  0.9988033694386473  0.6271423297993678
  0.4507660362956580  0.6168786652562513  0.5372418005696334
  0.8294722191277247  0.4398098755630717  0.6434682441432897
  0.1617532903362502  0.6145999793147726  0.4168423064827856
  0.3978767765725101  0.8307588515490799  0.5072467491364102
  0.1661025966651861  0.6156255896151955  0.6939472018429010
  0.3420880641522068  0.7703369613435601  0.6625803583792897
  0.1588328039370555  0.6757337392413610  0.2835308496579201
  0.1531766215187402  0.1117544726794845  0.3111776618951196
  0.6868993410541261  0.2908527821654012  0.6453097866229124
  0.1642591254172988  0.8990960855445573  0.6315454919085649
  0.2960381469744742  0.2964167838102862  0.4879669016374235
  0.5457512489271712  0.6474630657922581  0.7118321937072914
  0.1589415310358041  0.5887956840112794  0.7719772773701206
  0.5479056784900295  0.4899768614014409  0.6872257304973256
  0.1657002471225261  0.5982324363765456  0.7427344014869339
 
  0.00000000E+00  0.00000000E+00  0.00000000E+00
  0.00000000E+00  0.00000000E+00  0.00000000E+00
  0.00000000E+00  0.00000000E+00  0.00000000E+00
  0.00000000E+00  0.00000000E+00  0.00000000E+00
  0.00000000E+00  0.00000000E+00  0.00000000E+00
  0.00000000E+00  0.00000000E+00  0.00000000E+00
  0.00000000E+00  0.00000000E+00  0.00000000E+00
  0.00000000E+00  0.00000000E+00  0.00000000E+00
  0.00000000E+00  0.00000000E+00  0.00000000E+00
  0.00000000E+00  0.00000000E+00  0.00000000E+00
  0.00000000E+00  0.00000000E+00  0.00000000E+00
  0.00000000E+00  0.00000000E+00  0.00000000E+00
  0.00000000E+00  0.00000000E+00  0.00000000E+00
  0.00000000E+00  0.00000000E+00  0.00000000E+00
  0.00000000E+00  0.00000000E+00  0.00000000E+00
  0.00000000E+00  0.00000000E+00  0.00000000E+00
  0.00000000E+00  0.00000000E+00  0.00000000E+00
  0.00000000E+00  0.00000000E+00  0.00000000E+00
  0.00000000E+00  0.00000000E+00  0.00000000E+00
  0.00000000E+00  0.00000000E+00  0.00000000E+00
  0.00000000E+00  0.00000000E+00  0.00000000E+00
  0.00000000E+00  0.00000000E+00  0.00000000E+00
  0.00000000E+00  0.00000000E+00  0.00000000E+00
  0.00000000E+00  0.00000000E+00  0.00000000E+00
  0.00000000E+00  0.00000000E+00  0.00000000E+00
  0.00000000E+00  0.00000000E+00  0.00000000E+00
  0.00000000E+00  0.00000000E+00  0.00000000E+00
  0.00000000E+00  0.00000000E+00  0.00000000E+00
  0.00000000E+00  0.00000000E+00  0.00000000E+00
  0.00000000E+00  0.00000000E+00  0.00000000E+00
  0.00000000E+00  0.00000000E+00  0.00000000E+00
  0.00000000E+00  0.00000000E+00  0.00000000E+00
  0.00000000E+00  0.00000000E+00  0.00000000E+00
  0.00000000E+00  0.00000000E+00  0.00000000E+00
  0.00000000E+00  0.00000000E+00  0.00000000E+00
  0.00000000E+00  0.00000000E+00  0.00000000E+00
  0.00000000E+00  0.00000000E+00  0.00000000E+00
  0.00000000E+00  0.00000000E+00  0.00000000E+00
  0.00000000E+00  0.00000000E+00  0.00000000E+00
  0.00000000E+00  0.00000000E+00  0.00000000E+00
  0.00000000E+00  0.00000000E+00  0.00000000E+00
  0.00000000E+00  0.00000000E+00  0.00000000E+00
  0.00000000E+00  0.00000000E+00  0.00000000E+00
  0.00000000E+00  0.00000000E+00  0.00000000E+00
  0.00000000E+00  0.00000000E+00  0.00000000E+00
  0.00000000E+00  0.00000000E+00  0.00000000E+00
  0.00000000E+00  0.00000000E+00  0.00000000E+00
  0.00000000E+00  0.00000000E+00  0.00000000E+00
  0.00000000E+00  0.00000000E+00  0.00000000E+00
  0.00000000E+00  0.00000000E+00  0.00000000E+00
  0.00000000E+00  0.00000000E+00  0.00000000E+00
  0.00000000E+00  0.00000000E+00  0.00000000E+00
  0.00000000E+00  0.00000000E+00  0.00000000E+00
  0.00000000E+00  0.00000000E+00  0.00000000E+00
  0.00000000E+00  0.00000000E+00  0.00000000E+00
  0.00000000E+00  0.00000000E+00  0.00000000E+00
  0.00000000E+00  0.00000000E+00  0.00000000E+00
  0.00000000E+00  0.00000000E+00  0.00000000E+00
  0.00000000E+00  0.00000000E+00  0.00000000E+00
  0.00000000E+00  0.00000000E+00  0.00000000E+00
  0.00000000E+00  0.00000000E+00  0.00000000E+00
  0.00000000E+00  0.00000000E+00  0.00000000E+00
  0.00000000E+00  0.00000000E+00  0.00000000E+00
  0.00000000E+00  0.00000000E+00  0.00000000E+00
  0.00000000E+00  0.00000000E+00  0.00000000E+00
  0.00000000E+00  0.00000000E+00  0.00000000E+00
  0.00000000E+00  0.00000000E+00  0.00000000E+00
  0.00000000E+00  0.00000000E+00  0.00000000E+00
  0.00000000E+00  0.00000000E+00  0.00000000E+00
  0.00000000E+00  0.00000000E+00  0.00000000E+00
  0.00000000E+00  0.00000000E+00  0.00000000E+00
  0.00000000E+00  0.00000000E+00  0.00000000E+00
  0.00000000E+00  0.00000000E+00  0.00000000E+00
  0.00000000E+00  0.00000000E+00  0.00000000E+00
  0.00000000E+00  0.00000000E+00  0.00000000E+00
  0.00000000E+00  0.00000000E+00  0.00000000E+00
  0.00000000E+00  0.00000000E+00  0.00000000E+00
  0.00000000E+00  0.00000000E+00  0.00000000E+00
  0.00000000E+00  0.00000000E+00  0.00000000E+00
  0.00000000E+00  0.00000000E+00  0.00000000E+00
  0.00000000E+00  0.00000000E+00  0.00000000E+00
  0.00000000E+00  0.00000000E+00  0.00000000E+00
  0.00000000E+00  0.00000000E+00  0.00000000E+00
  0.00000000E+00  0.00000000E+00  0.00000000E+00
  0.00000000E+00  0.00000000E+00  0.00000000E+00
  0.00000000E+00  0.00000000E+00  0.00000000E+00
  0.00000000E+00  0.00000000E+00  0.00000000E+00
  0.00000000E+00  0.00000000E+00  0.00000000E+00
  0.00000000E+00  0.00000000E+00  0.00000000E+00
  0.00000000E+00  0.00000000E+00  0.00000000E+00
  0.00000000E+00  0.00000000E+00  0.00000000E+00
  0.00000000E+00  0.00000000E+00  0.00000000E+00
  0.00000000E+00  0.00000000E+00  0.00000000E+00
  0.00000000E+00  0.00000000E+00  0.00000000E+00
  0.00000000E+00  0.00000000E+00  0.00000000E+00
  0.00000000E+00  0.00000000E+00  0.00000000E+00
  0.00000000E+00  0.00000000E+00  0.00000000E+00
  0.00000000E+00  0.00000000E+00  0.00000000E+00
  0.00000000E+00  0.00000000E+00  0.00000000E+00
  0.00000000E+00  0.00000000E+00  0.00000000E+00
  0.00000000E+00  0.00000000E+00  0.00000000E+00
  0.00000000E+00  0.00000000E+00  0.00000000E+00
  0.00000000E+00  0.00000000E+00  0.00000000E+00
  0.00000000E+00  0.00000000E+00  0.00000000E+00
  0.00000000E+00  0.00000000E+00  0.00000000E+00
  0.00000000E+00  0.00000000E+00  0.00000000E+00
  0.00000000E+00  0.00000000E+00  0.00000000E+00
  0.00000000E+00  0.00000000E+00  0.00000000E+00
  0.00000000E+00  0.00000000E+00  0.00000000E+00
  0.00000000E+00  0.00000000E+00  0.00000000E+00
  0.00000000E+00  0.00000000E+00  0.00000000E+00
  0.00000000E+00  0.00000000E+00  0.00000000E+00
  0.00000000E+00  0.00000000E+00  0.00000000E+00
  0.00000000E+00  0.00000000E+00  0.00000000E+00
  0.00000000E+00  0.00000000E+00  0.00000000E+00
  0.00000000E+00  0.00000000E+00  0.00000000E+00
  0.00000000E+00  0.00000000E+00  0.00000000E+00
  0.00000000E+00  0.00000000E+00  0.00000000E+00
  0.00000000E+00  0.00000000E+00  0.00000000E+00
  0.00000000E+00  0.00000000E+00  0.00000000E+00
  0.00000000E+00  0.00000000E+00  0.00000000E+00
  0.00000000E+00  0.00000000E+00  0.00000000E+00
  0.00000000E+00  0.00000000E+00  0.00000000E+00
  0.00000000E+00  0.00000000E+00  0.00000000E+00
  0.00000000E+00  0.00000000E+00  0.00000000E+00
  0.00000000E+00  0.00000000E+00  0.00000000E+00
  0.00000000E+00  0.00000000E+00  0.00000000E+00
  0.00000000E+00  0.00000000E+00  0.00000000E+00
  0.00000000E+00  0.00000000E+00  0.00000000E+00
  0.00000000E+00  0.00000000E+00  0.00000000E+00
  0.00000000E+00  0.00000000E+00  0.00000000E+00
  0.00000000E+00  0.00000000E+00  0.00000000E+00
  0.00000000E+00  0.00000000E+00  0.00000000E+00
  0.00000000E+00  0.00000000E+00  0.00000000E+00
  0.00000000E+00  0.00000000E+00  0.00000000E+00
  0.00000000E+00  0.00000000E+00  0.00000000E+00
  0.00000000E+00  0.00000000E+00  0.00000000E+00
  0.00000000E+00  0.00000000E+00  0.00000000E+00
  0.00000000E+00  0.00000000E+00  0.00000000E+00
  0.00000000E+00  0.00000000E+00  0.00000000E+00
  0.00000000E+00  0.00000000E+00  0.00000000E+00
  0.00000000E+00  0.00000000E+00  0.00000000E+00
  0.00000000E+00  0.00000000E+00  0.00000000E+00
  0.00000000E+00  0.00000000E+00  0.00000000E+00
  0.00000000E+00  0.00000000E+00  0.00000000E+00
  0.00000000E+00  0.00000000E+00  0.00000000E+00
  0.00000000E+00  0.00000000E+00  0.00000000E+00
  0.00000000E+00  0.00000000E+00  0.00000000E+00
  0.00000000E+00  0.00000000E+00  0.00000000E+00
  0.00000000E+00  0.00000000E+00  0.00000000E+00
  0.00000000E+00  0.00000000E+00  0.00000000E+00
  0.00000000E+00  0.00000000E+00  0.00000000E+00
  0.00000000E+00  0.00000000E+00  0.00000000E+00
  0.00000000E+00  0.00000000E+00  0.00000000E+00
  0.00000000E+00  0.00000000E+00  0.00000000E+00
  0.00000000E+00  0.00000000E+00  0.00000000E+00
  0.00000000E+00  0.00000000E+00  0.00000000E+00
  0.00000000E+00  0.00000000E+00  0.00000000E+00
  0.00000000E+00  0.00000000E+00  0.00000000E+00
  0.00000000E+00  0.00000000E+00  0.00000000E+00
  0.00000000E+00  0.00000000E+00  0.00000000E+00
  0.00000000E+00  0.00000000E+00  0.00000000E+00
  0.00000000E+00  0.00000000E+00  0.00000000E+00
  0.00000000E+00  0.00000000E+00  0.00000000E+00
  0.00000000E+00  0.00000000E+00  0.00000000E+00
  0.00000000E+00  0.00000000E+00  0.00000000E+00
  0.00000000E+00  0.00000000E+00  0.00000000E+00
  0.00000000E+00  0.00000000E+00  0.00000000E+00
  0.00000000E+00  0.00000000E+00  0.00000000E+00
  0.00000000E+00  0.00000000E+00  0.00000000E+00
  0.00000000E+00  0.00000000E+00  0.00000000E+00
  0.00000000E+00  0.00000000E+00  0.00000000E+00
  0.00000000E+00  0.00000000E+00  0.00000000E+00
  0.00000000E+00  0.00000000E+00  0.00000000E+00
  0.00000000E+00  0.00000000E+00  0.00000000E+00
  0.00000000E+00  0.00000000E+00  0.00000000E+00
  0.00000000E+00  0.00000000E+00  0.00000000E+00
  0.00000000E+00  0.00000000E+00  0.00000000E+00
  0.00000000E+00  0.00000000E+00  0.00000000E+00
  0.00000000E+00  0.00000000E+00  0.00000000E+00
  0.00000000E+00  0.00000000E+00  0.00000000E+00
  0.00000000E+00  0.00000000E+00  0.00000000E+00
  0.00000000E+00  0.00000000E+00  0.00000000E+00
  0.00000000E+00  0.00000000E+00  0.00000000E+00
  0.00000000E+00  0.00000000E+00  0.00000000E+00
  0.00000000E+00  0.00000000E+00  0.00000000E+00
  0.00000000E+00  0.00000000E+00  0.00000000E+00
  0.00000000E+00  0.00000000E+00  0.00000000E+00
  0.00000000E+00  0.00000000E+00  0.00000000E+00
  0.00000000E+00  0.00000000E+00  0.00000000E+00
  0.00000000E+00  0.00000000E+00  0.00000000E+00
  0.00000000E+00  0.00000000E+00  0.00000000E+00
  0.00000000E+00  0.00000000E+00  0.00000000E+00
  0.00000000E+00  0.00000000E+00  0.00000000E+00
  0.00000000E+00  0.00000000E+00  0.00000000E+00
  0.00000000E+00  0.00000000E+00  0.00000000E+00
  0.00000000E+00  0.00000000E+00  0.00000000E+00
  0.00000000E+00  0.00000000E+00  0.00000000E+00
  0.00000000E+00  0.00000000E+00  0.00000000E+00
  0.00000000E+00  0.00000000E+00  0.00000000E+00
  0.00000000E+00  0.00000000E+00  0.00000000E+00
  0.00000000E+00  0.00000000E+00  0.00000000E+00
  0.00000000E+00  0.00000000E+00  0.00000000E+00
  0.00000000E+00  0.00000000E+00  0.00000000E+00
  0.00000000E+00  0.00000000E+00  0.00000000E+00
  0.00000000E+00  0.00000000E+00  0.00000000E+00
  0.00000000E+00  0.00000000E+00  0.00000000E+00
  0.00000000E+00  0.00000000E+00  0.00000000E+00
  0.00000000E+00  0.00000000E+00  0.00000000E+00
  0.00000000E+00  0.00000000E+00  0.00000000E+00
  0.00000000E+00  0.00000000E+00  0.00000000E+00
  0.00000000E+00  0.00000000E+00  0.00000000E+00
  0.00000000E+00  0.00000000E+00  0.00000000E+00
  0.00000000E+00  0.00000000E+00  0.00000000E+00
  0.00000000E+00  0.00000000E+00  0.00000000E+00
  0.00000000E+00  0.00000000E+00  0.00000000E+00
  0.00000000E+00  0.00000000E+00  0.00000000E+00
  0.00000000E+00  0.00000000E+00  0.00000000E+00
  0.00000000E+00  0.00000000E+00  0.00000000E+00
  0.00000000E+00  0.00000000E+00  0.00000000E+00
