Hf  O  F  H                             
   1.00000000000000     
    13.7225301000000002    0.0000000000000000    0.0000000000000000
     0.0000000000000000   13.7225301000000002    0.0000000000000000
     0.0000000000000000    0.0000000000000000   32.7225301000000002
   Hf   O    F    H 
    72   144     3     3
Direct
  0.1351638692686262  0.8683242722034483  0.4159552355844152
  0.8677245490420474  0.9472099678289967  0.5044781053061156
  0.0215092245276965  0.6284291808397194  0.3944369473529946
  0.8738432957857749  0.6433890209252210  0.3030251734977369
  0.0752654266653821  0.7884956085818781  0.3150386592705998
  0.4087383500003159  0.9440964898730785  0.5538306507515601
  0.6301077146060283  0.5176985039857790  0.2769889557778722
  0.6814853490125015  0.7530414131624952  0.2779033996199117
  0.0386758045422044  0.6505328509222119  0.6666042166205268
  0.2824271182109750  0.0590514085578476  0.4128151020150210
  0.9268596615855000  0.7399852285662422  0.4685770160005183
  0.2876131054925021  0.7634129159106658  0.2959207262164391
  0.1013621121006126  0.5288083174162247  0.3103126175969125
  0.3439666483250001  0.1682644762374666  0.5246643376888817
  0.5240429469508041  0.9774887987138081  0.6626214503669996
  0.2727510074985146  0.6355341722068832  0.6519456327570823
  0.5516570920473877  0.3681824304361357  0.5412729329871800
  0.4668141457830280  0.9921914525272821  0.3228847093812934
  0.2846930829848384  0.6606318757902003  0.3877193806075666
  0.8968392249159636  0.7216840354272105  0.5687617693385973
  0.8365978791650726  0.4317180992124728  0.3145887942413991
  0.9163055800228918  0.0976050541211564  0.5748336262842413
  0.0117710347526144  0.3555656582015873  0.3899022633918863
  0.9171443998850066  0.4996175972779758  0.5939471930643430
  0.1416171753433814  0.5357677514453026  0.5840179563583612
  0.1799540264483484  0.2505770559960716  0.4458194728033191
  0.1124492266354878  0.2886327030514392  0.5446939258249966
  0.7473863904312481  0.5571410752013346  0.5144073826827235
  0.3364161856287872  0.1370170874327410  0.6375181547281390
  0.6588802984273646  0.1515935886166912  0.6120116317968898
  0.5218362150380702  0.2908705792265064  0.6790735770307595
  0.2653779288810644  0.4512712113473947  0.4956704777451396
  0.3054833677697396  0.3552410492773989  0.6085763238626509
  0.8580864288648196  0.9799809746025694  0.4081625179681371
  0.1621883900848366  0.0450543460573054  0.5080870276426139
  0.7934572816207582  0.7103018475301500  0.6737658219072485
  0.4922032480118557  0.6475209441197752  0.3472409292653983
  0.0117565215053573  0.4709317689090134  0.4994986178658939
  0.8810400941688217  0.9240257474931866  0.3021450480153089
  0.4162106239558127  0.8206141506521639  0.4427410813158217
  0.4259146648022301  0.3362136961677156  0.4477761936857543
  0.6073684822939401  0.8047141557446157  0.5005137997290435
  0.3380475676082753  0.7107565065643587  0.5364857958043826
  0.1449416700466288  0.8241898616460007  0.5780817164341122
  0.6801325787730915  0.2325981934631926  0.4315778514244430
  0.5601217474298138  0.0047517816154669  0.4154870955642005
  0.3124465069603432  0.9042251891289111  0.6386238817674309
  0.4958010490020963  0.5611733968537570  0.4809974177267221
  0.5909466188935689  0.1492603926707429  0.5171401114916468
  0.0638463114188838  0.0570521588780158  0.3619351784408583
  0.8089316633548050  0.4198333725264828  0.4313134177469374
  0.6977313958568391  0.9261360490737177  0.5753200375501155
  0.5053239806901230  0.7352970557529533  0.6681452065906845
  0.6805251598152244  0.8471891975394403  0.3658627903838470
  0.2564533646454742 -0.0005966285394670  0.3081728800569927
  0.4496057003591293  0.5641238506443050  0.5966959201564007
  0.6520566094281020  0.2878433085966138  0.2893507699096900
  0.6604027737621541  0.6752906001325487  0.5973051848152383
 -0.0006684088757947  0.8986488030987145  0.6483161851538390
  0.7473281114237048  0.6363527175983636  0.3926780727011048
  0.2945455462674880  0.4262107930928233  0.3708150911464962
  0.6939645755975664  0.0449731706450388  0.2671151265277550
  0.5681923911988144  0.4287464442983122  0.3734355971731918
  0.4331278787060127  0.2197540040215355  0.3635860846355765
  0.6856854948297658  0.4552657765610280  0.6287608825494099
  0.1600864320087536  0.6690101871595060  0.4763426114985972
  0.8478012026982752  0.2922416825171876  0.6403364412008029
  0.8536190072899736  0.1971241794267080  0.3413933214143506
  0.0807628166200829  0.1830202842692311  0.6346487531261115
  0.8094303119405374  0.3284394098609933  0.5307253705515140
  0.9402967938647036  0.1865611500875027  0.4787304742998608
  0.1642719799139579  0.2560573947642905  0.3307556587681052
  0.3064556732021013  0.2901634560999656  0.3350465452043713
  0.9356093060657040  0.8246727171048156  0.5215329313396538
  0.3615537995143123  0.8845815821322786  0.3184230458932177
  0.5496756201415703  0.8903947530454543  0.4554578237911393
  0.0495448882273317  0.4278656474584964  0.5609233057599652
  0.0421241860772389  0.4948271764887798  0.3673047007397334
  0.0045708643545627  0.0504809837027502  0.6243595907653464
  0.3070666269208384  0.6111497293141809  0.4847130758683886
  0.1865545262756162  0.9734630290865995  0.4522655784085330
  0.0127673127096807  0.2348762934017481  0.3448970217111149
  0.3708822106044007  0.0472847086366957  0.2798174331440449
  0.1279592277649868  0.9353491901363843  0.5439541607649309
  0.4628973866435925  0.9090579917635069  0.6162157068798284
  0.7038328147332015  0.9692278165431975  0.4037040716006137
  0.3050435171496885  0.0162623097045770  0.5208309934840328
  0.5121442245174058  0.2864615056500735  0.7325233127476444
  0.0462864935609136  0.7887790735434149  0.6803260490359412
  0.7579806242102565  0.5617907149255295  0.4444494590272573
  0.8841071648567286  0.3434965588452361  0.5863636226719415
  0.3563551409365903  0.2229872805039142  0.5828540328683162
  0.8382495045290332  0.9733582050672837  0.5666763741825132
  0.2618962353749512  0.7742622644235284  0.4358703218951226
  0.0219076489777812  0.9411230221812545  0.3205586110937249
  0.7261774848714672  0.8937096864605855  0.5102863890133169
  0.3878401067282535  0.5563033442417225  0.3774713691435071
  0.9388447681933477  0.7845652417108651  0.2871773570281629
  0.8239277505013093  0.2713837276438502  0.4495346280631073
  0.0707209178954555  0.7857425415382244  0.4603587857279664
  0.1461643840258744  0.6741068956821904  0.6159528413741093
  0.8714074575858968  0.3502839852915241  0.3676254483509817
  0.5096544024986144  0.7068567333387298  0.4652012230494870
  0.7868798020660689  0.5863973389800488  0.5757002690092621
  0.2040644948073582  0.1654219840766443  0.5452585822425646
  0.5465546105731780  0.2893391344835257  0.3305477954857391
  0.9549694744430794  0.5040088830387612  0.2897112235516208
  0.6513102186808729  0.6790782973183278  0.5280112398925075
  0.5360720404950420  0.2610740890853964  0.4160659196334002
  0.9973497192993421  0.6115006148434269  0.5601956971806841
  0.9622243789057585  0.3191370567601781  0.5087163599013983
  0.4774104251434003  0.2581855344315730  0.5037919151690855
  0.4173027871764100  0.4391300577654234  0.4999514763501097
  0.8916189059305174  0.6854615133391467  0.4110404126095756
  0.4198087875604396  0.7366088773104302  0.3908826855734079
  0.5698485900353305  0.1355953711744149  0.6739872603460882
  0.7775017639882280  0.5436954619736643  0.2772541963746716
  0.8698771842346701  0.8700584274047882  0.4489263922895822
  0.5857073374545523  0.2366945373520883  0.5711253258380444
  0.6665184219744971  0.2700437853802184  0.4979026582717180
  0.8088809310164525  0.1604987537603695  0.6134283361853680
  0.1859472818962533  0.8748376502278565  0.2839982563545726
  0.3422306384731873  0.0817862304013723  0.3543458746073888
  0.7147488641690829  0.5943243189874642  0.6488631783901789
  0.3099528552392452  0.6283966197950968  0.5865658947196246
  0.5221409085443153  0.5144694514673612  0.3177064292002892
  0.8837647583655458  0.9249651058238237  0.6856409418441255
  0.1909831953090125  0.7355683699015390  0.5299188314732314
  0.4696529844076618  0.0751052267989806  0.5339116402070789
  0.1314093182716113  0.3751298534522214  0.4832424053512268
  0.1941525095935448  0.9641716680852646  0.3702045135338841
  0.6537227370489700  0.7618295366018638  0.6501270433515917
  0.6717620920162616  0.0726021511558411  0.5570923250635492
  0.2237126326192583  0.5449388754615766  0.3461576768224777
  0.3987077831835152  0.6762967509993486  0.3025147404058082
  0.4442134384367913  0.4124578477891765  0.5842230714874188
  0.0182278366664453  0.9634335058226222  0.4077659449236032
  0.9769416331588671  0.0516401836455387  0.5183857364925183
  0.2471899745832190  0.4878961696699917  0.6276103782596139
  0.5761165429055120  0.9774090117363285  0.2848353783236488
  0.8047066705718380  0.2890702050967260  0.2948787647801125
  0.0162887488322888  0.6106315719143890  0.4661824571780054
  0.0206429033497860  0.2498828014626019  0.4302267799058162
  0.5138625310482789  0.7006998159332417  0.6060353149185426
  0.4289129936582328  0.3720529433987558  0.3788067077503806
  0.2598852868343438  0.1316253904313411  0.4673319104877507
  0.8446784623170155  0.1835703976384814  0.5304046859058597
  0.1682267066828866  0.2908664648564006  0.6080559765653170
  0.0229841919880891  0.2013871319183412  0.5767462013837554
  0.9035592081748134  0.6636873791472262  0.6289294326283047
  0.7520500955083481  0.8875966091553192  0.2708762188727076
  0.7608850257189201  0.7875842417876378  0.5833515891677452
  0.5091157769828180  0.1416546639961500  0.6349413856148781
  0.8420851074710095  0.6712394009247583  0.5081584082968150
  0.3072582924654029  0.8344924169429347  0.5793465053539183
  0.3795881880058848  0.0176519761145388  0.6739494037818226
  0.3483596592928689  0.2185111154910761  0.4149103457155820
  0.6151132265946738  0.1063297902898786  0.4568139618947794
  0.1480509055193193  0.5451875580389640  0.5143793827539999
  0.5149690814792515  0.4603666984039196  0.4341566349421836
  0.1359880251993520  0.3848171120428053  0.3037153253317130
  0.5456903604991699  0.9085982753174696  0.3676348395924405
  0.8362803162342511  0.5489601359739894  0.3554831810042297
  0.5952394039138540  0.5349700454434895  0.5930628284337101
  0.0117354353701268  0.6494785492232632  0.3308536097787657
  0.6968514902677211  0.3898344461509469  0.5680258143633792
  0.2275023371367215  0.7567539793562831  0.3500534550190363
  0.8804376630318123  0.4782267811132086  0.5306196972237061
  0.8558589653683709  0.0634025125156108  0.4580992348486803
  0.3279668834644591  0.0245841073891514  0.5981622998402287
  0.6858820395355691  0.4233424882576872  0.3227086138048561
  0.7462245795446973  0.1823671928947926  0.3793706793566639
  0.5214574059091719  0.0952709162142892  0.3667032325812193
 -0.0000009925278990  0.8185107333168045  0.5954746427533412
  0.3751435185801695  0.2847130392279640  0.6574612946281307
  0.3999485960954496  0.9672329385282472  0.4240515263472398
  0.6144317206154319  0.5768567967887009  0.3788165650251783
  0.6486455038474988  0.1748803967510946  0.2525230413347026
  0.6893115350534421  0.7616456716211497  0.4120480734250416
  0.8258191277701082  0.8955930385219170  0.3551881585230297
  0.9561194390267240  0.4417489977238894  0.4378477872913564
  0.8534887508558748  0.8500644906227346  0.6548380587364423
  0.6014376311413813  0.4929426742076574  0.5108184695447456
  0.0388340234606579  0.5173635961417451  0.6295930885189072
  0.4147544180856766  0.5895770960235929  0.6560041856074764
  0.6202025891830015  0.6474817084749056  0.2474554433102563
  0.5714278881560907  0.4360307167915846  0.6706594677219514
  0.5894782641327343  0.7561538031197697  0.3257700365512327
  0.7645872991570585  0.7210639010731837  0.3326629197150241
  0.6861707890575064  0.3724159437177837  0.4040833992622530
  0.7610732318894837  0.4209349422298549  0.4869970887114943
  0.2956876545930920  0.4234586959808219  0.4327198141239961
  0.9128619715316825  0.6326132679990245  0.7036518647038721
  0.5189393105725751  0.8643024204282431  0.6962913452251950
  0.8285689400595417  0.0671440936778630  0.2948655043864435
  0.1621344105478433  0.1470282090783590  0.3943178679268530
  0.2034880174793986  0.1311115139719773  0.6581676870307009
  0.5636678095766102  0.8798218462360545  0.5495172992611912
  0.1640294778818122  0.3378636321254301  0.3865633947732791
  0.0910813501791471  0.1815394227962226  0.4902371250821739
  0.2391737535696526  0.4067017899700923  0.5540227817751875
  0.9733833092801980  0.2505464246944556  0.6638199189744992
  0.0574917101309121  0.7752254254399585  0.3775022052661258
  0.9171758437856854  0.0792325986824009  0.3675457450488187
  0.6514956827579339 -0.0011192301414572  0.6274425126507395
  0.4518727729109672  0.6161744307151552  0.5370503757053375
  0.8292469797120767  0.4406326617763325  0.6445132275672556
  0.1619470748277683  0.6145328004339302  0.4173042458648580
  0.3976844391392603  0.8309680904317861  0.5073925876689996
  0.1692644840411832  0.6166244133426335  0.6932019567153572
  0.3451234180672630  0.7695234462177971  0.6625191272356536
  0.1584398749181556  0.6753354069082571  0.2840894777622429
  0.1529797153389307  0.1112874797870026  0.3115799359186954
  0.6867324447757849  0.2911073055772498  0.6459681597739765
  0.1658680958506549  0.8978132539961519  0.6323617449646427
  0.2965070617187106  0.2964790154249968  0.4883746506598783
  0.5449405490603505  0.6472542945354445  0.7108921905689184
  0.0823252430284906  0.6129950103681260  0.7606455588289465
  0.7587965319160317  0.7338439004351268  0.7293319393421881
  0.5473877224163287  0.4913829035600780  0.6868572001573898
  0.1299485610421218  0.6120644488558986  0.7381878903421574
  0.9190775196577879  0.6348925177135778  0.7333734302969304
 
  0.00000000E+00  0.00000000E+00  0.00000000E+00
  0.00000000E+00  0.00000000E+00  0.00000000E+00
  0.00000000E+00  0.00000000E+00  0.00000000E+00
  0.00000000E+00  0.00000000E+00  0.00000000E+00
  0.00000000E+00  0.00000000E+00  0.00000000E+00
  0.00000000E+00  0.00000000E+00  0.00000000E+00
  0.00000000E+00  0.00000000E+00  0.00000000E+00
  0.00000000E+00  0.00000000E+00  0.00000000E+00
  0.00000000E+00  0.00000000E+00  0.00000000E+00
  0.00000000E+00  0.00000000E+00  0.00000000E+00
  0.00000000E+00  0.00000000E+00  0.00000000E+00
  0.00000000E+00  0.00000000E+00  0.00000000E+00
  0.00000000E+00  0.00000000E+00  0.00000000E+00
  0.00000000E+00  0.00000000E+00  0.00000000E+00
  0.00000000E+00  0.00000000E+00  0.00000000E+00
  0.00000000E+00  0.00000000E+00  0.00000000E+00
  0.00000000E+00  0.00000000E+00  0.00000000E+00
  0.00000000E+00  0.00000000E+00  0.00000000E+00
  0.00000000E+00  0.00000000E+00  0.00000000E+00
  0.00000000E+00  0.00000000E+00  0.00000000E+00
  0.00000000E+00  0.00000000E+00  0.00000000E+00
  0.00000000E+00  0.00000000E+00  0.00000000E+00
  0.00000000E+00  0.00000000E+00  0.00000000E+00
  0.00000000E+00  0.00000000E+00  0.00000000E+00
  0.00000000E+00  0.00000000E+00  0.00000000E+00
  0.00000000E+00  0.00000000E+00  0.00000000E+00
  0.00000000E+00  0.00000000E+00  0.00000000E+00
  0.00000000E+00  0.00000000E+00  0.00000000E+00
  0.00000000E+00  0.00000000E+00  0.00000000E+00
  0.00000000E+00  0.00000000E+00  0.00000000E+00
  0.00000000E+00  0.00000000E+00  0.00000000E+00
  0.00000000E+00  0.00000000E+00  0.00000000E+00
  0.00000000E+00  0.00000000E+00  0.00000000E+00
  0.00000000E+00  0.00000000E+00  0.00000000E+00
  0.00000000E+00  0.00000000E+00  0.00000000E+00
  0.00000000E+00  0.00000000E+00  0.00000000E+00
  0.00000000E+00  0.00000000E+00  0.00000000E+00
  0.00000000E+00  0.00000000E+00  0.00000000E+00
  0.00000000E+00  0.00000000E+00  0.00000000E+00
  0.00000000E+00  0.00000000E+00  0.00000000E+00
  0.00000000E+00  0.00000000E+00  0.00000000E+00
  0.00000000E+00  0.00000000E+00  0.00000000E+00
  0.00000000E+00  0.00000000E+00  0.00000000E+00
  0.00000000E+00  0.00000000E+00  0.00000000E+00
  0.00000000E+00  0.00000000E+00  0.00000000E+00
  0.00000000E+00  0.00000000E+00  0.00000000E+00
  0.00000000E+00  0.00000000E+00  0.00000000E+00
  0.00000000E+00  0.00000000E+00  0.00000000E+00
  0.00000000E+00  0.00000000E+00  0.00000000E+00
  0.00000000E+00  0.00000000E+00  0.00000000E+00
  0.00000000E+00  0.00000000E+00  0.00000000E+00
  0.00000000E+00  0.00000000E+00  0.00000000E+00
  0.00000000E+00  0.00000000E+00  0.00000000E+00
  0.00000000E+00  0.00000000E+00  0.00000000E+00
  0.00000000E+00  0.00000000E+00  0.00000000E+00
  0.00000000E+00  0.00000000E+00  0.00000000E+00
  0.00000000E+00  0.00000000E+00  0.00000000E+00
  0.00000000E+00  0.00000000E+00  0.00000000E+00
  0.00000000E+00  0.00000000E+00  0.00000000E+00
  0.00000000E+00  0.00000000E+00  0.00000000E+00
  0.00000000E+00  0.00000000E+00  0.00000000E+00
  0.00000000E+00  0.00000000E+00  0.00000000E+00
  0.00000000E+00  0.00000000E+00  0.00000000E+00
  0.00000000E+00  0.00000000E+00  0.00000000E+00
  0.00000000E+00  0.00000000E+00  0.00000000E+00
  0.00000000E+00  0.00000000E+00  0.00000000E+00
  0.00000000E+00  0.00000000E+00  0.00000000E+00
  0.00000000E+00  0.00000000E+00  0.00000000E+00
  0.00000000E+00  0.00000000E+00  0.00000000E+00
  0.00000000E+00  0.00000000E+00  0.00000000E+00
  0.00000000E+00  0.00000000E+00  0.00000000E+00
  0.00000000E+00  0.00000000E+00  0.00000000E+00
  0.00000000E+00  0.00000000E+00  0.00000000E+00
  0.00000000E+00  0.00000000E+00  0.00000000E+00
  0.00000000E+00  0.00000000E+00  0.00000000E+00
  0.00000000E+00  0.00000000E+00  0.00000000E+00
  0.00000000E+00  0.00000000E+00  0.00000000E+00
  0.00000000E+00  0.00000000E+00  0.00000000E+00
  0.00000000E+00  0.00000000E+00  0.00000000E+00
  0.00000000E+00  0.00000000E+00  0.00000000E+00
  0.00000000E+00  0.00000000E+00  0.00000000E+00
  0.00000000E+00  0.00000000E+00  0.00000000E+00
  0.00000000E+00  0.00000000E+00  0.00000000E+00
  0.00000000E+00  0.00000000E+00  0.00000000E+00
  0.00000000E+00  0.00000000E+00  0.00000000E+00
  0.00000000E+00  0.00000000E+00  0.00000000E+00
  0.00000000E+00  0.00000000E+00  0.00000000E+00
  0.00000000E+00  0.00000000E+00  0.00000000E+00
  0.00000000E+00  0.00000000E+00  0.00000000E+00
  0.00000000E+00  0.00000000E+00  0.00000000E+00
  0.00000000E+00  0.00000000E+00  0.00000000E+00
  0.00000000E+00  0.00000000E+00  0.00000000E+00
  0.00000000E+00  0.00000000E+00  0.00000000E+00
  0.00000000E+00  0.00000000E+00  0.00000000E+00
  0.00000000E+00  0.00000000E+00  0.00000000E+00
  0.00000000E+00  0.00000000E+00  0.00000000E+00
  0.00000000E+00  0.00000000E+00  0.00000000E+00
  0.00000000E+00  0.00000000E+00  0.00000000E+00
  0.00000000E+00  0.00000000E+00  0.00000000E+00
  0.00000000E+00  0.00000000E+00  0.00000000E+00
  0.00000000E+00  0.00000000E+00  0.00000000E+00
  0.00000000E+00  0.00000000E+00  0.00000000E+00
  0.00000000E+00  0.00000000E+00  0.00000000E+00
  0.00000000E+00  0.00000000E+00  0.00000000E+00
  0.00000000E+00  0.00000000E+00  0.00000000E+00
  0.00000000E+00  0.00000000E+00  0.00000000E+00
  0.00000000E+00  0.00000000E+00  0.00000000E+00
  0.00000000E+00  0.00000000E+00  0.00000000E+00
  0.00000000E+00  0.00000000E+00  0.00000000E+00
  0.00000000E+00  0.00000000E+00  0.00000000E+00
  0.00000000E+00  0.00000000E+00  0.00000000E+00
  0.00000000E+00  0.00000000E+00  0.00000000E+00
  0.00000000E+00  0.00000000E+00  0.00000000E+00
  0.00000000E+00  0.00000000E+00  0.00000000E+00
  0.00000000E+00  0.00000000E+00  0.00000000E+00
  0.00000000E+00  0.00000000E+00  0.00000000E+00
  0.00000000E+00  0.00000000E+00  0.00000000E+00
  0.00000000E+00  0.00000000E+00  0.00000000E+00
  0.00000000E+00  0.00000000E+00  0.00000000E+00
  0.00000000E+00  0.00000000E+00  0.00000000E+00
  0.00000000E+00  0.00000000E+00  0.00000000E+00
  0.00000000E+00  0.00000000E+00  0.00000000E+00
  0.00000000E+00  0.00000000E+00  0.00000000E+00
  0.00000000E+00  0.00000000E+00  0.00000000E+00
  0.00000000E+00  0.00000000E+00  0.00000000E+00
  0.00000000E+00  0.00000000E+00  0.00000000E+00
  0.00000000E+00  0.00000000E+00  0.00000000E+00
  0.00000000E+00  0.00000000E+00  0.00000000E+00
  0.00000000E+00  0.00000000E+00  0.00000000E+00
  0.00000000E+00  0.00000000E+00  0.00000000E+00
  0.00000000E+00  0.00000000E+00  0.00000000E+00
  0.00000000E+00  0.00000000E+00  0.00000000E+00
  0.00000000E+00  0.00000000E+00  0.00000000E+00
  0.00000000E+00  0.00000000E+00  0.00000000E+00
  0.00000000E+00  0.00000000E+00  0.00000000E+00
  0.00000000E+00  0.00000000E+00  0.00000000E+00
  0.00000000E+00  0.00000000E+00  0.00000000E+00
  0.00000000E+00  0.00000000E+00  0.00000000E+00
  0.00000000E+00  0.00000000E+00  0.00000000E+00
  0.00000000E+00  0.00000000E+00  0.00000000E+00
  0.00000000E+00  0.00000000E+00  0.00000000E+00
  0.00000000E+00  0.00000000E+00  0.00000000E+00
  0.00000000E+00  0.00000000E+00  0.00000000E+00
  0.00000000E+00  0.00000000E+00  0.00000000E+00
  0.00000000E+00  0.00000000E+00  0.00000000E+00
  0.00000000E+00  0.00000000E+00  0.00000000E+00
  0.00000000E+00  0.00000000E+00  0.00000000E+00
  0.00000000E+00  0.00000000E+00  0.00000000E+00
  0.00000000E+00  0.00000000E+00  0.00000000E+00
  0.00000000E+00  0.00000000E+00  0.00000000E+00
  0.00000000E+00  0.00000000E+00  0.00000000E+00
  0.00000000E+00  0.00000000E+00  0.00000000E+00
  0.00000000E+00  0.00000000E+00  0.00000000E+00
  0.00000000E+00  0.00000000E+00  0.00000000E+00
  0.00000000E+00  0.00000000E+00  0.00000000E+00
  0.00000000E+00  0.00000000E+00  0.00000000E+00
  0.00000000E+00  0.00000000E+00  0.00000000E+00
  0.00000000E+00  0.00000000E+00  0.00000000E+00
  0.00000000E+00  0.00000000E+00  0.00000000E+00
  0.00000000E+00  0.00000000E+00  0.00000000E+00
  0.00000000E+00  0.00000000E+00  0.00000000E+00
  0.00000000E+00  0.00000000E+00  0.00000000E+00
  0.00000000E+00  0.00000000E+00  0.00000000E+00
  0.00000000E+00  0.00000000E+00  0.00000000E+00
  0.00000000E+00  0.00000000E+00  0.00000000E+00
  0.00000000E+00  0.00000000E+00  0.00000000E+00
  0.00000000E+00  0.00000000E+00  0.00000000E+00
  0.00000000E+00  0.00000000E+00  0.00000000E+00
  0.00000000E+00  0.00000000E+00  0.00000000E+00
  0.00000000E+00  0.00000000E+00  0.00000000E+00
  0.00000000E+00  0.00000000E+00  0.00000000E+00
  0.00000000E+00  0.00000000E+00  0.00000000E+00
  0.00000000E+00  0.00000000E+00  0.00000000E+00
  0.00000000E+00  0.00000000E+00  0.00000000E+00
  0.00000000E+00  0.00000000E+00  0.00000000E+00
  0.00000000E+00  0.00000000E+00  0.00000000E+00
  0.00000000E+00  0.00000000E+00  0.00000000E+00
  0.00000000E+00  0.00000000E+00  0.00000000E+00
  0.00000000E+00  0.00000000E+00  0.00000000E+00
  0.00000000E+00  0.00000000E+00  0.00000000E+00
  0.00000000E+00  0.00000000E+00  0.00000000E+00
  0.00000000E+00  0.00000000E+00  0.00000000E+00
  0.00000000E+00  0.00000000E+00  0.00000000E+00
  0.00000000E+00  0.00000000E+00  0.00000000E+00
  0.00000000E+00  0.00000000E+00  0.00000000E+00
  0.00000000E+00  0.00000000E+00  0.00000000E+00
  0.00000000E+00  0.00000000E+00  0.00000000E+00
  0.00000000E+00  0.00000000E+00  0.00000000E+00
  0.00000000E+00  0.00000000E+00  0.00000000E+00
  0.00000000E+00  0.00000000E+00  0.00000000E+00
  0.00000000E+00  0.00000000E+00  0.00000000E+00
  0.00000000E+00  0.00000000E+00  0.00000000E+00
  0.00000000E+00  0.00000000E+00  0.00000000E+00
  0.00000000E+00  0.00000000E+00  0.00000000E+00
  0.00000000E+00  0.00000000E+00  0.00000000E+00
  0.00000000E+00  0.00000000E+00  0.00000000E+00
  0.00000000E+00  0.00000000E+00  0.00000000E+00
  0.00000000E+00  0.00000000E+00  0.00000000E+00
  0.00000000E+00  0.00000000E+00  0.00000000E+00
  0.00000000E+00  0.00000000E+00  0.00000000E+00
  0.00000000E+00  0.00000000E+00  0.00000000E+00
  0.00000000E+00  0.00000000E+00  0.00000000E+00
  0.00000000E+00  0.00000000E+00  0.00000000E+00
  0.00000000E+00  0.00000000E+00  0.00000000E+00
  0.00000000E+00  0.00000000E+00  0.00000000E+00
  0.00000000E+00  0.00000000E+00  0.00000000E+00
  0.00000000E+00  0.00000000E+00  0.00000000E+00
  0.00000000E+00  0.00000000E+00  0.00000000E+00
  0.00000000E+00  0.00000000E+00  0.00000000E+00
  0.00000000E+00  0.00000000E+00  0.00000000E+00
  0.00000000E+00  0.00000000E+00  0.00000000E+00
  0.00000000E+00  0.00000000E+00  0.00000000E+00
  0.00000000E+00  0.00000000E+00  0.00000000E+00
  0.00000000E+00  0.00000000E+00  0.00000000E+00
  0.00000000E+00  0.00000000E+00  0.00000000E+00
  0.00000000E+00  0.00000000E+00  0.00000000E+00
  0.00000000E+00  0.00000000E+00  0.00000000E+00
  0.00000000E+00  0.00000000E+00  0.00000000E+00
  0.00000000E+00  0.00000000E+00  0.00000000E+00
  0.00000000E+00  0.00000000E+00  0.00000000E+00
  0.00000000E+00  0.00000000E+00  0.00000000E+00
  0.00000000E+00  0.00000000E+00  0.00000000E+00
