Hf  O  F                                
   1.00000000000000     
    13.7225301000000002    0.0000000000000000    0.0000000000000000
     0.0000000000000000   13.7225301000000002    0.0000000000000000
     0.0000000000000000    0.0000000000000000   32.7225301000000002
   Hf   O    F 
    72   136    16
Direct
  0.1288522662878671  0.8717702438922325  0.4178731891069479
  0.8615720350333841  0.9492798370424257  0.5051698153826421
  0.0170798874286080  0.6345288177136856  0.3918147524700913
  0.8727008817413325  0.6491985206618480  0.3011864074696526
  0.0752375850839648  0.7942188497601063  0.3144423269843683
  0.4038120557385673  0.9517103504332954  0.5443090804694574
  0.6291149057732499  0.5221126994016123  0.2776786084432360
  0.6782972273077832  0.7577692690357135  0.2774753738391133
  0.0097144497337240  0.6849091534709546  0.6376206894743779
  0.2782397667612285  0.0640421345919183  0.4126764718994987
  0.9238455290962672  0.7411003254152837  0.4716145749039559
  0.2870660338072810  0.7669883755243152  0.2953419583538218
  0.1007716250197250  0.5320460758809281  0.3093610293806662
  0.3406698346640558  0.1777147320478848  0.5226644901101742
  0.5608745939696246  0.9937094688483922  0.6765467008474876
  0.2813704706263625  0.6436477476247578  0.6973310247047394
  0.5451226076633525  0.3778210914248722  0.5477184493337283
  0.4659740545351563  0.9969089172455786  0.3213775313892535
  0.2796522625666072  0.6626968712014526  0.3882647817702644
  0.8436518153490788  0.7269463630625979  0.5692457749271602
  0.8375325771921350  0.4375876854559191  0.3138117600192207
  0.9120354501559845  0.0991040347564551  0.5745275722398807
  0.0126034503652956  0.3597900246651637  0.3889965023685460
  0.9362816681520388  0.4745673874454852  0.5992281802788484
  0.1664207193143275  0.5329607000730372  0.5884217141719181
  0.1807861596112848  0.2560421921827196  0.4447797829293148
  0.1013572507679978  0.2865910354861042  0.5401500068736710
  0.7403858229239686  0.5537733535510828  0.5107260100273153
  0.3565668218577647  0.1362675568501284  0.6369862382727345
  0.6613187828728569  0.1595392845190186  0.6119604431025008
  0.4956256628170084  0.3218972633468877  0.7013866132479863
  0.2662593559455842  0.4522156452634917  0.4992583043165620
  0.3132830055601704  0.3424703539505733  0.6108610276842934
  0.8570795871618565  0.9809953490854134  0.4085642609821120
  0.1530476395278648  0.0483508357131225  0.5085527536174703
  0.7804987464501629  0.6955917894589196  0.6861582240266355
  0.4891253089943445  0.6519652164727752  0.3469987816018319
  0.0076857584724530  0.4695115110262436  0.5004127891428916
  0.8800915864738080  0.9288515924202337  0.3021943684349770
  0.4007997723824854  0.8299508921392373  0.4409208905551713
  0.4274849947227279  0.3467550001799718  0.4494002570078503
  0.6054482018145714  0.8062173640024241  0.4954713236349262
  0.3503995319200550  0.7089016660663208  0.5279017472024004
  0.1520611581836457  0.8192789570808601  0.5746745140786301
  0.6780845831711027  0.2319494758128348  0.4301674545653418
  0.5570960679015635  0.0070858840850255  0.4142145600905371
  0.3265689165524179  0.8970082201133581  0.6357582252181296
  0.5055385730056527  0.5699771395431094  0.4848818290661259
  0.5862353817805762  0.1599294574642816  0.5146756943996702
  0.0611350009438033  0.0628403078712498  0.3621245253554222
  0.8119968637487803  0.4155311774212836  0.4300127397255044
  0.6794990962738233  0.9348309183571266  0.5726748289928532
  0.4872420055330243  0.7548791865323109  0.6695980308120358
  0.6804042166906376  0.8496478680487632  0.3654577871808301
  0.2547703969277701  0.0038677388021785  0.3090903223572468
  0.4213294514537935  0.5639242488170619  0.6045864695899246
  0.6508267989589429  0.2940148637464415  0.2916949019695533
  0.6400663783269442  0.6623071927112865  0.6090764535764038
  0.0468677452099254  0.9225095829005392  0.6516346404960986
  0.7475426134464229  0.6378954954385815  0.3925198963465246
  0.2944401702902949  0.4310015923919035  0.3725507380723609
  0.6908572895413093  0.0464940542941531  0.2676207956433023
  0.5678812931164667  0.4355385936716265  0.3747679402667770
  0.4317441708623249  0.2251923643794415  0.3656076108167606
  0.6833652206098456  0.4428680968241334  0.6328388173396893
  0.1548930499016455  0.6649584420218069  0.4784281782009559
  0.8506286983680453  0.2839658968339955  0.6496781715492057
  0.8520052558510884  0.1998529511992833  0.3401040673111173
  0.0759159086148107  0.1723224778739925  0.6402611243636064
  0.8094597886243400  0.3301619112552160  0.5365481767576606
  0.9333408521876752  0.1886266022786650  0.4764552002476327
  0.1654210151248505  0.2607066484117544  0.3303305908306220
  0.3071490840635490  0.2972322022427388  0.3356429588289920
  0.9182900385957069  0.8223138972788436  0.5265515233774172
  0.3603672278911194  0.8894209105818555  0.3187596431042528
  0.5453524858025843  0.8822465666407809  0.4508977037676598
  0.0555529176999485  0.4276046474020470  0.5633966135652581
  0.0390443398669003  0.4989656456665710  0.3656923414401270
  0.0047053547922744  0.0433602323629655  0.6177991339899050
  0.2999662514624658  0.6069413259619709  0.4828347797053533
  0.1847372547194041  0.9763582869609049  0.4538208369748457
  0.0132275247233506  0.2380482610913299  0.3449325533873692
  0.3673070600298692  0.0526826006587134  0.2799228396710888
  0.1209953748746819  0.9327404720100474  0.5414764437352925
  0.4785961717347035  0.8875515506748445  0.6421645660149119
  0.7025567801659363  0.9702243203109830  0.4037420206933643
  0.2898164973651871  0.0308467799918518  0.5287118717253463
  0.7587913540473467  0.5532475496683040  0.4408378994464116
  0.8869105552826982  0.3296305667945674  0.5884036144397834
  0.3684938512171627  0.2146795747497693  0.5824468356174110
  0.8248954037683354  0.9764173368983572  0.5658550261393557
  0.2551817118437520  0.7796514374976837  0.4325517196070036
  0.0205143279401848  0.9476610093558003  0.3207164524042190
  0.7184102767230803  0.8960915762490850  0.5074042159972427
  0.3846743316842242  0.5601116980320515  0.3767969453734598
  0.9389117968368842  0.7910671511593654  0.2863564691201729
  0.8273193767609673  0.2665400528244752  0.4434948251962588
  0.0664770183389194  0.7854305346966282  0.4613133472392000
  0.1310915697599510  0.6757382966122223  0.5961981184387966
  0.8714455334536568  0.3570198148034922  0.3671466588057733
  0.4623466120560658  0.7172941913837646  0.4765613627561682
  0.7434592857191975  0.6083171232260008  0.5688879982839816
  0.2008919364178529  0.1796730902727887  0.5449254911711988
  0.5455643059395000  0.2969759748278856  0.3330597176429270
  0.9551199245806976  0.5099327573956578  0.2881166646000038
  0.6339713585573367  0.6603718170680343  0.4931715600350510
  0.5312589722184220  0.2625830261854227  0.4181973474154005
  0.9408641833555645  0.6237333166347401  0.5856496453519627
  0.9600618933760978  0.3203827102319444  0.5089261705292260
  0.4787333544854733  0.2711915892259847  0.5057654333333728
  0.4168738010231629  0.4476246144461016  0.5028168158480414
  0.8911155539294935  0.6865566984100051  0.4137200420239355
  0.4172662808849038  0.7379294314472431  0.3914155592703310
  0.5746662735257944  0.1560095006487542  0.6660190874404780
  0.7767967415098769  0.5480013469246888  0.2764216397228903
  0.8721972234189279  0.8721813081617019  0.4502197304085519
  0.5865249219803413  0.2434371276701506  0.5702571598672830
  0.6751855517365094  0.2650480311501675  0.4930661580288357
  0.8113584772551354  0.1506156642432993  0.6142606639572261
  0.1849410697215526  0.8795091894995783  0.2843247812566721
  0.3395724672369682  0.0877972716709984  0.3549280827201989
  0.7163295956917015  0.5815774349294455  0.6501933339153984
  0.2996270209425688  0.6067685624867997  0.5721054525748676
  0.5212198754557166  0.5185201834845732  0.3183765005010937
  0.0527223674093510  0.8673879892635340  0.7081024730368665
  0.2033003611072418  0.7457067289111748  0.5239392043381145
  0.4605611976263180  0.0785137849236658  0.5188799566846179
  0.1313278530275596  0.3762887945322030  0.4842853333430009
  0.1911489628112363  0.9685483014362966  0.3714578405218064
  0.6336931951724449  0.7357189648344482  0.6651416378252700
  0.6556538566728169  0.0762095935743322  0.5556080088108573
  0.2201029458598426  0.5475294600786325  0.3470838282780794
  0.3992824485314605  0.6813100728110294  0.3011185771001541
  0.4333431564085063  0.4110214808792027  0.5879480432291276
  0.0155954634259113  0.9695170670880350  0.4086324973357799
  0.9729497218060986  0.0509322998846343  0.5176957031939049
  0.2743496317679194  0.4787848719677480  0.6274170195646511
  0.5703191775291400  0.9778572901576140  0.2813266459640941
  0.8043043202600065  0.2954941413483035  0.2944649365395521
  0.0100385425835579  0.6122224454629308  0.4752441697085229
  0.0229110315468824  0.2564297980487752  0.4303825186626305
  0.4943400915992377  0.7015796957395438  0.6114280159856962
  0.4288230268851018  0.3780419609775905  0.3814213904582903
  0.2553232322689297  0.1349963774765039  0.4679000021853210
  0.8439883187826154  0.1859046263253044  0.5293616825272561
  0.2192908635131361  0.2140470790169572  0.6343921299076768
  0.0302652388841216  0.2011971606668578  0.5818816920902714
  0.8517401634161325  0.7396107267371691  0.6311069459661681
  0.7503986198402000  0.8929993364840114  0.2713197515062426
  0.7028029108102442  0.7881735243193337  0.5795339667107151
  0.5140397169532219  0.1158075295903527  0.6314865654575971
  0.8291252205431644  0.6718262830594016  0.5063656803799637
  0.3209150659359425  0.8324572749046222  0.5788400721004656
  0.3414293488945102  0.2260333689003881  0.4153029999203559
  0.6120329287725587  0.1065358574061235  0.4549311714920156
  0.1450933514650169  0.5434058225558592  0.5186054993853054
  0.5152049245089455  0.4697897495509049  0.4360783666581089
  0.1343233356129624  0.3877995649264120  0.3028431770546790
  0.5462224405968159  0.9137076188384482  0.3653020532033321
  0.8398282731495686  0.5583925418163874  0.3537128588307288
  0.5724128906977095  0.5261699349268368  0.6023743690848180
  0.0116215392865753  0.6552078748678808  0.3294760006038818
  0.6951669534662770  0.3961278845590327  0.5692658230519415
  0.2265923385251081  0.7570804831730892  0.3490788866193354
  0.8850701262520397  0.4841968969010451  0.5377385937349388
  0.8495145645578044  0.0646581126458671  0.4582152683247183
  0.3778620679277200  0.0159667934215112  0.6009521431426277
  0.6870580082024915  0.4304995968450265  0.3240021367867139
  0.7401288951208277  0.1872562102448218  0.3748559316899957
  0.5198792643222261  0.0995134150788967  0.3661160343543134
  0.0182898088295381  0.8203058242977603  0.6047022865611930
  0.3947395641285652  0.2743490485578519  0.6595318641210135
  0.3991774100866661  0.9768376551452991  0.4236115158732217
  0.6128741635235149  0.5830481564711576  0.3790494694048711
  0.6449240625449796  0.1784335272874542  0.2566239531907663
  0.6894458754353294  0.7636302081837029  0.4117029720960172
  0.8263271778796167  0.8981640829220391  0.3553107048343921
  0.9591691551951628  0.4460448477900950  0.4376519611774528
  0.9845292106889957  0.8087855801188752  0.6820716224177981
  0.6038666740701009  0.4839466091430251  0.5125867459956027
  0.0543622251319524  0.5290673683195564  0.6308056808451254
  0.4054556784965999  0.6111169579716546  0.6667971546467749
  0.6183003210674524  0.6511026081806466  0.2474569629376226
  0.5818245567830841  0.4095626292823251  0.6738960465228260
  0.5880637130165766  0.7589970102939696  0.3257338278692767
  0.7637176298193727  0.7260748215857749  0.3316319687016867
  0.6833258761120984  0.3739697271472426  0.4049316025992465
  0.7797599473530954  0.4185348873745856  0.4880584668948460
  0.2927358999034323  0.4302380322067119  0.4349254622427097
  0.8269838910983874  0.0722660873114500  0.2953579247965274
  0.1598077335213725  0.1519731212745795  0.3944316837585118
  0.5459137284985119  0.8835245118182633  0.5437233426513055
  0.1642676096537400  0.3427141420203514  0.3863522905623786
  0.0845936055814845  0.1830445438621483  0.4898211361954197
  0.2325456689151441  0.3827587375792486  0.5581853246390512
  0.0549780040801609  0.7815470255143261  0.3768115137742404
  0.9144257870842823  0.0846595682093272  0.3691018525541447
  0.6580566367956326  0.9959467041731302  0.6285863948942699
  0.4617143759833313  0.6146467540161960  0.5427691195725795
  0.8359882637016554  0.4360810700019814  0.6434694444704429
  0.1526550426727766  0.6196236726758768  0.4177245982802036
  0.3657340832872861  0.8528071282427262  0.5014103085846435
  0.3351118016152660  0.7847939077899964  0.6749716474020766
  0.1585581555599908  0.6797544489874934  0.2830992704002647
  0.1518302575618363  0.1159543091014896  0.3118878593760023
  0.7066753590104238  0.2882030658790483  0.6384843320828248
  0.1794688880140710  0.8908398097499572  0.6294634767261417
  0.2993776789238798  0.3019437551970282  0.4875800579678410
  0.4154341192256706  0.4074076940691011  0.7321588898100493
  0.5526572188276512  0.2411190908958128  0.7424277675992802
  0.9458242131166805  0.1727646480565117  0.6726346643697348
  0.1027874600537707  0.0601689220648454  0.6804414426634338
  0.9208251967722663  0.6236152562731215  0.6834472265124446
  0.1451063292677190  0.6833734703744483  0.6768371995220432
  0.7798164823090180  0.8240227135717799  0.7090616646180075
  0.7593177513829752  0.6249187186754069  0.7358574874479893
  0.5282020791846563  0.8646162578760515  0.7126576470305274
  0.6528715989053552  0.0142992266433703  0.7187615638272613
  0.8289704713787085  0.3031302430845871  0.7070584543947808
  0.0283883694518174  0.3131043579995772  0.6483965883477705
  0.2761499002575442  0.0258666343655823  0.6646567966087515
  0.4312097892894977  0.0604238906838731  0.6926386049343182
  0.3274897954752312  0.6847119097477483  0.7491747716918453
  0.2312496874474075  0.5201826515801262  0.7135124362654466
 
  0.00000000E+00  0.00000000E+00  0.00000000E+00
  0.00000000E+00  0.00000000E+00  0.00000000E+00
  0.00000000E+00  0.00000000E+00  0.00000000E+00
  0.00000000E+00  0.00000000E+00  0.00000000E+00
  0.00000000E+00  0.00000000E+00  0.00000000E+00
  0.00000000E+00  0.00000000E+00  0.00000000E+00
  0.00000000E+00  0.00000000E+00  0.00000000E+00
  0.00000000E+00  0.00000000E+00  0.00000000E+00
  0.00000000E+00  0.00000000E+00  0.00000000E+00
  0.00000000E+00  0.00000000E+00  0.00000000E+00
  0.00000000E+00  0.00000000E+00  0.00000000E+00
  0.00000000E+00  0.00000000E+00  0.00000000E+00
  0.00000000E+00  0.00000000E+00  0.00000000E+00
  0.00000000E+00  0.00000000E+00  0.00000000E+00
  0.00000000E+00  0.00000000E+00  0.00000000E+00
  0.00000000E+00  0.00000000E+00  0.00000000E+00
  0.00000000E+00  0.00000000E+00  0.00000000E+00
  0.00000000E+00  0.00000000E+00  0.00000000E+00
  0.00000000E+00  0.00000000E+00  0.00000000E+00
  0.00000000E+00  0.00000000E+00  0.00000000E+00
  0.00000000E+00  0.00000000E+00  0.00000000E+00
  0.00000000E+00  0.00000000E+00  0.00000000E+00
  0.00000000E+00  0.00000000E+00  0.00000000E+00
  0.00000000E+00  0.00000000E+00  0.00000000E+00
  0.00000000E+00  0.00000000E+00  0.00000000E+00
  0.00000000E+00  0.00000000E+00  0.00000000E+00
  0.00000000E+00  0.00000000E+00  0.00000000E+00
  0.00000000E+00  0.00000000E+00  0.00000000E+00
  0.00000000E+00  0.00000000E+00  0.00000000E+00
  0.00000000E+00  0.00000000E+00  0.00000000E+00
  0.00000000E+00  0.00000000E+00  0.00000000E+00
  0.00000000E+00  0.00000000E+00  0.00000000E+00
  0.00000000E+00  0.00000000E+00  0.00000000E+00
  0.00000000E+00  0.00000000E+00  0.00000000E+00
  0.00000000E+00  0.00000000E+00  0.00000000E+00
  0.00000000E+00  0.00000000E+00  0.00000000E+00
  0.00000000E+00  0.00000000E+00  0.00000000E+00
  0.00000000E+00  0.00000000E+00  0.00000000E+00
  0.00000000E+00  0.00000000E+00  0.00000000E+00
  0.00000000E+00  0.00000000E+00  0.00000000E+00
  0.00000000E+00  0.00000000E+00  0.00000000E+00
  0.00000000E+00  0.00000000E+00  0.00000000E+00
  0.00000000E+00  0.00000000E+00  0.00000000E+00
  0.00000000E+00  0.00000000E+00  0.00000000E+00
  0.00000000E+00  0.00000000E+00  0.00000000E+00
  0.00000000E+00  0.00000000E+00  0.00000000E+00
  0.00000000E+00  0.00000000E+00  0.00000000E+00
  0.00000000E+00  0.00000000E+00  0.00000000E+00
  0.00000000E+00  0.00000000E+00  0.00000000E+00
  0.00000000E+00  0.00000000E+00  0.00000000E+00
  0.00000000E+00  0.00000000E+00  0.00000000E+00
  0.00000000E+00  0.00000000E+00  0.00000000E+00
  0.00000000E+00  0.00000000E+00  0.00000000E+00
  0.00000000E+00  0.00000000E+00  0.00000000E+00
  0.00000000E+00  0.00000000E+00  0.00000000E+00
  0.00000000E+00  0.00000000E+00  0.00000000E+00
  0.00000000E+00  0.00000000E+00  0.00000000E+00
  0.00000000E+00  0.00000000E+00  0.00000000E+00
  0.00000000E+00  0.00000000E+00  0.00000000E+00
  0.00000000E+00  0.00000000E+00  0.00000000E+00
  0.00000000E+00  0.00000000E+00  0.00000000E+00
  0.00000000E+00  0.00000000E+00  0.00000000E+00
  0.00000000E+00  0.00000000E+00  0.00000000E+00
  0.00000000E+00  0.00000000E+00  0.00000000E+00
  0.00000000E+00  0.00000000E+00  0.00000000E+00
  0.00000000E+00  0.00000000E+00  0.00000000E+00
  0.00000000E+00  0.00000000E+00  0.00000000E+00
  0.00000000E+00  0.00000000E+00  0.00000000E+00
  0.00000000E+00  0.00000000E+00  0.00000000E+00
  0.00000000E+00  0.00000000E+00  0.00000000E+00
  0.00000000E+00  0.00000000E+00  0.00000000E+00
  0.00000000E+00  0.00000000E+00  0.00000000E+00
  0.00000000E+00  0.00000000E+00  0.00000000E+00
  0.00000000E+00  0.00000000E+00  0.00000000E+00
  0.00000000E+00  0.00000000E+00  0.00000000E+00
  0.00000000E+00  0.00000000E+00  0.00000000E+00
  0.00000000E+00  0.00000000E+00  0.00000000E+00
  0.00000000E+00  0.00000000E+00  0.00000000E+00
  0.00000000E+00  0.00000000E+00  0.00000000E+00
  0.00000000E+00  0.00000000E+00  0.00000000E+00
  0.00000000E+00  0.00000000E+00  0.00000000E+00
  0.00000000E+00  0.00000000E+00  0.00000000E+00
  0.00000000E+00  0.00000000E+00  0.00000000E+00
  0.00000000E+00  0.00000000E+00  0.00000000E+00
  0.00000000E+00  0.00000000E+00  0.00000000E+00
  0.00000000E+00  0.00000000E+00  0.00000000E+00
  0.00000000E+00  0.00000000E+00  0.00000000E+00
  0.00000000E+00  0.00000000E+00  0.00000000E+00
  0.00000000E+00  0.00000000E+00  0.00000000E+00
  0.00000000E+00  0.00000000E+00  0.00000000E+00
  0.00000000E+00  0.00000000E+00  0.00000000E+00
  0.00000000E+00  0.00000000E+00  0.00000000E+00
  0.00000000E+00  0.00000000E+00  0.00000000E+00
  0.00000000E+00  0.00000000E+00  0.00000000E+00
  0.00000000E+00  0.00000000E+00  0.00000000E+00
  0.00000000E+00  0.00000000E+00  0.00000000E+00
  0.00000000E+00  0.00000000E+00  0.00000000E+00
  0.00000000E+00  0.00000000E+00  0.00000000E+00
  0.00000000E+00  0.00000000E+00  0.00000000E+00
  0.00000000E+00  0.00000000E+00  0.00000000E+00
  0.00000000E+00  0.00000000E+00  0.00000000E+00
  0.00000000E+00  0.00000000E+00  0.00000000E+00
  0.00000000E+00  0.00000000E+00  0.00000000E+00
  0.00000000E+00  0.00000000E+00  0.00000000E+00
  0.00000000E+00  0.00000000E+00  0.00000000E+00
  0.00000000E+00  0.00000000E+00  0.00000000E+00
  0.00000000E+00  0.00000000E+00  0.00000000E+00
  0.00000000E+00  0.00000000E+00  0.00000000E+00
  0.00000000E+00  0.00000000E+00  0.00000000E+00
  0.00000000E+00  0.00000000E+00  0.00000000E+00
  0.00000000E+00  0.00000000E+00  0.00000000E+00
  0.00000000E+00  0.00000000E+00  0.00000000E+00
  0.00000000E+00  0.00000000E+00  0.00000000E+00
  0.00000000E+00  0.00000000E+00  0.00000000E+00
  0.00000000E+00  0.00000000E+00  0.00000000E+00
  0.00000000E+00  0.00000000E+00  0.00000000E+00
  0.00000000E+00  0.00000000E+00  0.00000000E+00
  0.00000000E+00  0.00000000E+00  0.00000000E+00
  0.00000000E+00  0.00000000E+00  0.00000000E+00
  0.00000000E+00  0.00000000E+00  0.00000000E+00
  0.00000000E+00  0.00000000E+00  0.00000000E+00
  0.00000000E+00  0.00000000E+00  0.00000000E+00
  0.00000000E+00  0.00000000E+00  0.00000000E+00
  0.00000000E+00  0.00000000E+00  0.00000000E+00
  0.00000000E+00  0.00000000E+00  0.00000000E+00
  0.00000000E+00  0.00000000E+00  0.00000000E+00
  0.00000000E+00  0.00000000E+00  0.00000000E+00
  0.00000000E+00  0.00000000E+00  0.00000000E+00
  0.00000000E+00  0.00000000E+00  0.00000000E+00
  0.00000000E+00  0.00000000E+00  0.00000000E+00
  0.00000000E+00  0.00000000E+00  0.00000000E+00
  0.00000000E+00  0.00000000E+00  0.00000000E+00
  0.00000000E+00  0.00000000E+00  0.00000000E+00
  0.00000000E+00  0.00000000E+00  0.00000000E+00
  0.00000000E+00  0.00000000E+00  0.00000000E+00
  0.00000000E+00  0.00000000E+00  0.00000000E+00
  0.00000000E+00  0.00000000E+00  0.00000000E+00
  0.00000000E+00  0.00000000E+00  0.00000000E+00
  0.00000000E+00  0.00000000E+00  0.00000000E+00
  0.00000000E+00  0.00000000E+00  0.00000000E+00
  0.00000000E+00  0.00000000E+00  0.00000000E+00
  0.00000000E+00  0.00000000E+00  0.00000000E+00
  0.00000000E+00  0.00000000E+00  0.00000000E+00
  0.00000000E+00  0.00000000E+00  0.00000000E+00
  0.00000000E+00  0.00000000E+00  0.00000000E+00
  0.00000000E+00  0.00000000E+00  0.00000000E+00
  0.00000000E+00  0.00000000E+00  0.00000000E+00
  0.00000000E+00  0.00000000E+00  0.00000000E+00
  0.00000000E+00  0.00000000E+00  0.00000000E+00
  0.00000000E+00  0.00000000E+00  0.00000000E+00
  0.00000000E+00  0.00000000E+00  0.00000000E+00
  0.00000000E+00  0.00000000E+00  0.00000000E+00
  0.00000000E+00  0.00000000E+00  0.00000000E+00
  0.00000000E+00  0.00000000E+00  0.00000000E+00
  0.00000000E+00  0.00000000E+00  0.00000000E+00
  0.00000000E+00  0.00000000E+00  0.00000000E+00
  0.00000000E+00  0.00000000E+00  0.00000000E+00
  0.00000000E+00  0.00000000E+00  0.00000000E+00
  0.00000000E+00  0.00000000E+00  0.00000000E+00
  0.00000000E+00  0.00000000E+00  0.00000000E+00
  0.00000000E+00  0.00000000E+00  0.00000000E+00
  0.00000000E+00  0.00000000E+00  0.00000000E+00
  0.00000000E+00  0.00000000E+00  0.00000000E+00
  0.00000000E+00  0.00000000E+00  0.00000000E+00
  0.00000000E+00  0.00000000E+00  0.00000000E+00
  0.00000000E+00  0.00000000E+00  0.00000000E+00
  0.00000000E+00  0.00000000E+00  0.00000000E+00
  0.00000000E+00  0.00000000E+00  0.00000000E+00
  0.00000000E+00  0.00000000E+00  0.00000000E+00
  0.00000000E+00  0.00000000E+00  0.00000000E+00
  0.00000000E+00  0.00000000E+00  0.00000000E+00
  0.00000000E+00  0.00000000E+00  0.00000000E+00
  0.00000000E+00  0.00000000E+00  0.00000000E+00
  0.00000000E+00  0.00000000E+00  0.00000000E+00
  0.00000000E+00  0.00000000E+00  0.00000000E+00
  0.00000000E+00  0.00000000E+00  0.00000000E+00
  0.00000000E+00  0.00000000E+00  0.00000000E+00
  0.00000000E+00  0.00000000E+00  0.00000000E+00
  0.00000000E+00  0.00000000E+00  0.00000000E+00
  0.00000000E+00  0.00000000E+00  0.00000000E+00
  0.00000000E+00  0.00000000E+00  0.00000000E+00
  0.00000000E+00  0.00000000E+00  0.00000000E+00
  0.00000000E+00  0.00000000E+00  0.00000000E+00
  0.00000000E+00  0.00000000E+00  0.00000000E+00
  0.00000000E+00  0.00000000E+00  0.00000000E+00
  0.00000000E+00  0.00000000E+00  0.00000000E+00
  0.00000000E+00  0.00000000E+00  0.00000000E+00
  0.00000000E+00  0.00000000E+00  0.00000000E+00
  0.00000000E+00  0.00000000E+00  0.00000000E+00
  0.00000000E+00  0.00000000E+00  0.00000000E+00
  0.00000000E+00  0.00000000E+00  0.00000000E+00
  0.00000000E+00  0.00000000E+00  0.00000000E+00
  0.00000000E+00  0.00000000E+00  0.00000000E+00
  0.00000000E+00  0.00000000E+00  0.00000000E+00
  0.00000000E+00  0.00000000E+00  0.00000000E+00
  0.00000000E+00  0.00000000E+00  0.00000000E+00
  0.00000000E+00  0.00000000E+00  0.00000000E+00
  0.00000000E+00  0.00000000E+00  0.00000000E+00
  0.00000000E+00  0.00000000E+00  0.00000000E+00
  0.00000000E+00  0.00000000E+00  0.00000000E+00
  0.00000000E+00  0.00000000E+00  0.00000000E+00
  0.00000000E+00  0.00000000E+00  0.00000000E+00
  0.00000000E+00  0.00000000E+00  0.00000000E+00
  0.00000000E+00  0.00000000E+00  0.00000000E+00
  0.00000000E+00  0.00000000E+00  0.00000000E+00
  0.00000000E+00  0.00000000E+00  0.00000000E+00
  0.00000000E+00  0.00000000E+00  0.00000000E+00
  0.00000000E+00  0.00000000E+00  0.00000000E+00
  0.00000000E+00  0.00000000E+00  0.00000000E+00
  0.00000000E+00  0.00000000E+00  0.00000000E+00
  0.00000000E+00  0.00000000E+00  0.00000000E+00
  0.00000000E+00  0.00000000E+00  0.00000000E+00
  0.00000000E+00  0.00000000E+00  0.00000000E+00
  0.00000000E+00  0.00000000E+00  0.00000000E+00
  0.00000000E+00  0.00000000E+00  0.00000000E+00
  0.00000000E+00  0.00000000E+00  0.00000000E+00
  0.00000000E+00  0.00000000E+00  0.00000000E+00
  0.00000000E+00  0.00000000E+00  0.00000000E+00
  0.00000000E+00  0.00000000E+00  0.00000000E+00
  0.00000000E+00  0.00000000E+00  0.00000000E+00
  0.00000000E+00  0.00000000E+00  0.00000000E+00
  0.00000000E+00  0.00000000E+00  0.00000000E+00
  0.00000000E+00  0.00000000E+00  0.00000000E+00
  0.00000000E+00  0.00000000E+00  0.00000000E+00
