Hf  O  F  H                             
   1.00000000000000     
    13.7225301000000002    0.0000000000000000    0.0000000000000000
     0.0000000000000000   13.7225301000000002    0.0000000000000000
     0.0000000000000000    0.0000000000000000   32.7225301000000002
   Hf   O    F    H 
    72   144    30    30
Direct
  0.1687580458112455  0.8446573201019182  0.4056233401647526
  0.8649169038784598  0.9429136344791346  0.5037487888363961
  0.0362536756846238  0.6514383752196112  0.3897975080626421
  0.8784149547001677  0.6363116743803936  0.2936494483295743
  0.0752894743418518  0.7823923406486064  0.3008811532008617
  0.3463230937170211  0.9731090587420197  0.5381663240590044
  0.6493874340959128  0.5163077389920626  0.2682988343355824
  0.6513064534276274  0.7725041843372408  0.2697374164336039
  0.0411981134158800  0.6845359168490858  0.6549274572878891
  0.2926005567047569  0.0508262177913599  0.4049278369484404
  0.9337262133713986  0.7317925482698546  0.4688470944657596
  0.2977294109019841  0.7537887603282146  0.3082966473550077
  0.1118483469723725  0.5312542410546267  0.3099475936047545
  0.3081162554347607  0.1999232905028347  0.5118454007889621
  0.5556714203818531  0.0388475759038175  0.6811288965635068
  0.2996709053928289  0.6535585909695015  0.6560672445542817
  0.5330430255120531  0.3606772328930690  0.5253122561120331
  0.4825582844418012  0.9764046956206447  0.3126049095390124
  0.3086761990518119  0.6163435574701747  0.3974992916021284
  0.8959837795213310  0.7210015910209805  0.5664433213192333
  0.8504661662552767  0.4232745249433097  0.3118604346954599
  0.9139244917448049  0.0990643866831863  0.5732277397124216
  0.0340484795648599  0.3865623191797759  0.3971260005804749
  0.9223812659962002  0.5047923138640538  0.5937766722715915
  0.1526223483136400  0.5742501526214023  0.5717596112282519
  0.1522539052078632  0.2266079096554201  0.4388784939730226
  0.1003028487940159  0.2998920877963064  0.5492274365206861
  0.7476600780872871  0.5328157192411144  0.5164273570828813
  0.3661854723077068  0.1452388725377333  0.6315209696576581
  0.6521992636832810  0.1574870369443414  0.5989191781144645
  0.5286670634896904  0.2862320566877666  0.6703396278841059
  0.2609180468377857  0.4425788498936420  0.4777476299907245
  0.3074359638321040  0.3523779055517481  0.5945404408697420
  0.8735911977728422  0.9651268881193286  0.4039995110520095
  0.1345608247811894  0.0316046805747702  0.4924160517424854
  0.8155848425116727  0.6030158963751712  0.6803870024751659
  0.5043673525549779  0.6372562469786048  0.3448702216149421
  0.0203706044910168  0.4764542890283783  0.4953581248271958
  0.8707267179923347  0.8845338384804148  0.2890422157347788
  0.4228618493408220  0.8116539803875562  0.4449393501620644
  0.4193211471222825  0.3306993190113244  0.4349139454671681
  0.6300654202685393  0.7895365458748553  0.4941916915373335
  0.4256702141945069  0.7656518928960691  0.5633305353255986
  0.1498395816023592  0.8205632537860653  0.5733896604755333
  0.6655076289112216  0.2251413197492433  0.4245427931048366
  0.5639427337089256  0.9882824204475620  0.4080761703390097
  0.3272513422701407  0.9161218638237283  0.6373004958547802
  0.4815428308701829  0.5631506821105343  0.4794737343449498
  0.5618538079081401  0.1399225710444966  0.5062645249604006
  0.0636597857491942  0.0242568781695485  0.3522665994630741
  0.8079021921446280  0.4047369197140720  0.4332840185572892
  0.6852538395973571  0.9188236190791246  0.5776315283956432
  0.5264221804708024  0.7901562643736592  0.6562230988151501
  0.6976927246004616  0.8394637829459144  0.3610117235310767
  0.2687664546219439  0.9951678625679276  0.3016788926051027
  0.4400494942922550  0.5540844199124961  0.5917075044604055
  0.6881967053849932  0.2408070562774613  0.3109549340443626
  0.6661064363337003  0.6794377025699732  0.5898573102979430
  0.0385716105079964  0.9219095265060036  0.6506169775820823
  0.7523311100859141  0.6155058401424841  0.3950383830575036
  0.2877218993588617  0.4136897920179989  0.3553931307542279
  0.7027903070993718  0.0037569404891144  0.2541921309197608
  0.5590020729392280  0.4225192843370705  0.3709182266962567
  0.4359348396322830  0.2059215438199804  0.3533318400954583
  0.6764346412916421  0.4545875972458183  0.6218258941148035
  0.1789972181986280  0.6728249949306290  0.4750291467480934
  0.8466815775657750  0.2849641919238761  0.6489671441222752
  0.8849770843469340  0.2267519472653906  0.3680559882123823
  0.0939519729204039  0.1790121953776521  0.6359455862260246
  0.8383904167944239  0.3221843312690009  0.5422704411157254
  0.9303168266461881  0.1754976657512999  0.4710756579249138
  0.1609815342083649  0.2386079524974070  0.3317970323767525
  0.3058705985917338  0.2666874853422080  0.3268084013057411
  0.9423819924698913  0.8206850080284236  0.5215822176781207
  0.3710152489175448  0.8828672962425514  0.3191985137629736
  0.5601829051001359  0.8793498626256446  0.4505945271757203
  0.0690531467052387  0.4445776557968333  0.5561122987218983
  0.0503485821486620  0.5118057222540559  0.3668725513822039
  0.0027059184488398  0.0495028270650680  0.6202851498396372
  0.3240206052413105  0.5924980946453986  0.4629474495220595
  0.1989713197880330  0.9560326035451097  0.4438571681086422
  0.0206768550749051  0.2758484629397194  0.3442989392395899
  0.3871351235162070  0.0315293856355651  0.2710665740221920
  0.1365739683390616  0.9076507206256252  0.5264759570580968
  0.4559887207379605  0.8647416093149390  0.6096967103397753
  0.7127690254666099  0.9583100686260840  0.3994571873287538
  0.2413182410959031  0.0679387721443122  0.5321432827157083
  0.5052378162043910  0.3256834993802584  0.7374330361687990
  0.0504524076173566  0.8058572300553480  0.6868008787513440
  0.7573135609118659  0.5430162936962994  0.4472106149099825
  0.9126959708921036  0.3550790733023512  0.5943282130818631
  0.3423377539350526  0.2132376350541024  0.5726822605510482
  0.8250227890186358  0.9822889280171487  0.5649374402340849
  0.2728418382179578  0.7702268399525818  0.4432365721820206
  0.0132023811710455  0.9242573616232790  0.3086969788323820
  0.7272324123983682  0.8948902283308495  0.5071795861890712
  0.4048266483188802  0.5347270548156703  0.3618179374215053
  0.9506426579773093  0.7632499429820943  0.2670696051337627
  0.8213240780829769  0.2456089980656547  0.4319491384160415
  0.0762485666075477  0.7682112076680282  0.4437104589840257
  0.1646605737613794  0.6871648293517205  0.6159633419775552
  0.8830364339613047  0.3833399145156513  0.3738030395030844
  0.5177055799223959  0.7044153555620111  0.4670526688833519
  0.7958046952237943  0.5911755438323276  0.5738373548035952
  0.1461266605177826  0.2064859196892647  0.5046036983500031
  0.5584600521324459  0.2880328262581448  0.3286759098137890
  0.9702587003971134  0.4921850934885665  0.2887492165244772
  0.6617981560918037  0.6608805422142549  0.5233959668414223
  0.5358576309661270  0.2642058392681680  0.4048899574805936
  0.0061816178915144  0.6182158177044802  0.5639076338124674
  0.9758958797228744  0.3106042633494144  0.5083449932931338
  0.4505085545730162  0.2535020009335898  0.4931150212129073
  0.4086912009847668  0.4289137976138740  0.4912378789699392
  0.9008656219568020  0.6715824554483222  0.4110924575703593
  0.4351526802325970  0.7061322595331274  0.3954565774126862
  0.6106982678921635  0.1794204397131270  0.7004628475511404
  0.7990921501376843  0.5354974223087005  0.2646027654227310
  0.8769228370594736  0.8626972568389036  0.4483813107139971
  0.5776212094006441  0.2369902065925291  0.5559117171680834
  0.6296693971063284  0.2660297436913698  0.4814141552727590
  0.8029062630954747  0.1990007991081051  0.5944000328357166
  0.2006388156178561  0.8612490199849413  0.2844664700589601
  0.3470251176198686  0.0717965095511603  0.3453591034617314
  0.6950108915361104  0.6033675503789137  0.6433260160391658
  0.3398636081667262  0.6726664748756080  0.5953906093491665
  0.5518999975569503  0.5076403845762276  0.3131380212824290
  0.8886783699095631  0.9371713274977130  0.6781045121768693
  0.1775684942426571  0.7038125127621380  0.5360598119977870
  0.4286911550101126  0.0751665304958739  0.5104948905786967
  0.1178419764164980  0.3926131811755136  0.4573461388484443
  0.2022633235501239  0.9558151619230810  0.3625016063233708
  0.6485108001713925  0.8129491840593999  0.6230545162408480
  0.6355922834992163  0.0590959056171184  0.5482415408471837
  0.2317059046818228  0.5509830725717605  0.3467389069264566
  0.4184920244561972  0.6838855828659006  0.2990942281256855
  0.4431985807505463  0.4077004301059490  0.5706970274609697
  0.0237708787615110  0.9385736783650338  0.3981524181208623
  0.9790836501130897  0.0447006589687011  0.5193585505834823
  0.2706944918843039  0.4974723856773176  0.5909777666700209
  0.5812063108466583  0.9147253711559002  0.2715401534963208
  0.8422739561003676  0.2710877856460862  0.3106530762056078
  0.0297330865588118  0.6166386583983838  0.4749938479121119
  0.9979711581469848  0.2558900059143479  0.4220364275783270
  0.5195034618148564  0.6884973351985838  0.6037442423131011
  0.4190355868487964  0.3552761820572559  0.3700982099313412
  0.2509449107092565  0.1186980346110276  0.4584323666508159
  0.8457151061989191  0.1805197374685429  0.5220801762765720
  0.1670254173134386  0.2963042008419200  0.6071268347167916
  0.0320957542011519  0.1908377375918524  0.5771206442306216
  0.9030988452257932  0.6492651325307566  0.6298259990623281
  0.7542133348053730  0.8606919927482169  0.2441632835594755
  0.7707764347031226  0.7882164889955202  0.5735544114413389
  0.5270809717329629  0.1580418255257218  0.6332191747269740
  0.8468355250778857  0.6604636230984071  0.5060737110513615
  0.2982060386955209  0.8522601691404248  0.5746606851869239
  0.4129945226986065  0.0188301804763596  0.6646352413090306
  0.3740104086901625  0.1824644065595177  0.4075657533845666
  0.6062947164685056  0.0969542813072388  0.4474068911495658
  0.1707071922687215  0.5360469327607822  0.5075303275662184
  0.5058087764710210  0.4549547703769425  0.4281004638025183
  0.1700128607373841  0.3949009306689998  0.3094864410206480
  0.5610538313773908  0.8984908863109176  0.3586609955345107
  0.8230961992857114  0.5604924554820695  0.3439738860997140
  0.5903439095343367  0.5318774511919507  0.5857575196927041
  0.0060743263183718  0.6520461946832956  0.3253535217247552
  0.7231218781071335  0.4079058542908377  0.5638063691025481
  0.2596082354474952  0.7454778806883042  0.3657418387958455
  0.8930526511679523  0.4756223975594820  0.5311476503240535
  0.8555841109105786  0.0496027798162212  0.4551733552559761
  0.3644561211626214  0.0244971786658760  0.5929049166339114
  0.7091397238832271  0.3897893419206709  0.2953288561657696
  0.7330275052356638  0.1876191343588697  0.3658240051567498
  0.5298780768860941  0.0819452132439958  0.3552796508143840
  0.0099507027458264  0.8092892484902415  0.6045970006293305
  0.3957052817616008  0.3026960306686460  0.6393160376035203
  0.4062421393999106  0.9525893942684717  0.4172086144296916
  0.6193912482376135  0.5678068519623843  0.3798644779003044
  0.6558136370210322  0.1323510032331830  0.2735513804302000
  0.7096145126077714  0.7488997844994734  0.4066215988216522
  0.8384790587559064  0.8924389889945613  0.3496383550528468
  0.9465635591266406  0.4551492857576113  0.4407968969672366
  0.8222932730590156  0.8744774962022053  0.6546761268747693
  0.5962379096159163  0.4840509279210598  0.5031652895257277
  0.0550989181411528  0.5266267408335312  0.6290043614033954
  0.4050889825373258  0.5558316797352797  0.6517772511310465
  0.6267051012789835  0.6491442653746806  0.2432930074844971
  0.5587458978559704  0.4353734275481516  0.6644848413757939
  0.6081520473574092  0.7402940087562545  0.3266989805583209
  0.7814934928479550  0.7508542570151824  0.3062232134271581
  0.6879301037489857  0.3746077431359624  0.3981295600610105
  0.7776251752276707  0.3852120725019927  0.4904921608705451
  0.2999801723995642  0.4477312598445100  0.4166754354944383
  0.9580197237652173  0.6275910402470223  0.7034396089483095
  0.5612601625370262  0.8986127568099309  0.6902111981474717
  0.8387940414717180  0.0177108295229715  0.2700410985943300
  0.1615896195362538  0.1400976873416722  0.3834043921491004
  0.2277545137324919  0.1191708930376784  0.6421738788438439
  0.5730510317469074  0.8301897669880646  0.5464702035223731
  0.1755268157611066  0.3270352819968009  0.3856601240318780
  0.0543151322937443  0.1086576997513046  0.4517734482104052
  0.2481054550054832  0.3467090275511276  0.5330231344878379
  0.9772974458920508  0.2441290797699224  0.6597708638893808
  0.0778395265013105  0.7788500338240948  0.3628234597815086
  0.9299910286260001  0.0853747526114587  0.3676886498197087
  0.6518654693252803  0.0189493583640686  0.6242719282191549
  0.4403546830218147  0.6205774719476983  0.5337878048028437
  0.8227866798574991  0.4613978996293470  0.6431061837264103
  0.1641359896208631  0.6104832367935953  0.4176631810327970
  0.3967240620005321  0.8452978732790645  0.5063399461323608
  0.1656333544646110  0.6323576879927848  0.6877397850572489
  0.3641391148898737  0.7817024779466607  0.6658591419843516
  0.1717874185897228  0.6684439887067927  0.2867900461987574
  0.1523010487749621  0.0983744166165829  0.3055667341625066
  0.6598639674471947  0.3008918398091950  0.6334447956659938
  0.1733738171664127  0.9081657615451222  0.6255849998584694
  0.2830874706616388  0.2963483186643362  0.4600453845446988
  0.5450328526972109  0.6866149779526114  0.7009185021815847
  0.1479599568125583  0.7747210091534423  0.7507458972947794
  0.9296265206086775  0.7326195017683219  0.7708617456934471
  0.4162801194617597  0.1894362146330046  0.6930906106604956
  0.7397348699333539  0.1654646643703307  0.7665784997399419
  0.2590395961139969  0.9271477007571503  0.6976440397231783
  0.3277641138198545  0.6409196100113047  0.7244413793689313
  0.5129866030686937  0.8480022552826715  0.8166210730382112
  0.2454991203224690  0.1445496473745829  0.7485034701449792
  0.4609178294031313  0.7144818184752463  0.7609713462498073
  0.8711512246396327  0.8981813332741456  0.7507813706325129
  0.4639577046459830  0.5078457721109078  0.7606369422480345
  0.5915033589784030  0.0264550353252341  0.8232326890182051
  0.6480377049160735  0.3075875396557961  0.7872748793738609
  0.2450319884721432  0.4222685760397669  0.6806066034263842
  0.8011565508194590  0.5133844616410301  0.7279045350404506
  0.1985007482798276  0.9521274865359652  0.8088543729383415
  0.8194790735136577  0.0276185791903088  0.7917863217272658
  0.0704483646658067  0.0157310508599055  0.6968147949532845
  0.3226465379426803  0.9084930380604949  0.7629935084000099
  0.1419745932143741  0.2225558835333427  0.6999239123933070
  0.4086664525103318  0.1631159351957456  0.7715890353261537
  0.5069704472468938  0.0461417321128241  0.7412948307580358
  0.7145888497744092  0.0224452804087223  0.7031287238036675
  0.0646477566839849  0.0162930703669141  0.7707451093901713
  0.7654793924444757  0.7169531524840116  0.7066251093992882
  0.9443056473419454  0.4301014919174181  0.7536618775153695
  0.7994786750623538  0.3239644710695422  0.7021231449501839
  0.7977730192360970  0.1468109026384027  0.6676957961150964
  0.0685531844015785  0.4252927480598880  0.7026989719934689
  0.5073475592218736  0.4861099832978657  0.6691928027822478
  0.1679497072754151  0.6410378764921502  0.7174538666137309
  0.9580706061656538  0.6601703306185767  0.7307658632535228
  0.4615655577528626  0.2748057714527844  0.7491414445495475
  0.7729520276648209  0.1013601737466663  0.7784027140162125
  0.2902605977234635  0.9172034312624551  0.7272535631990530
  0.3801180903031893  0.6701841201665349  0.7423975898950509
  0.4935626164302927  0.8057636926419759  0.7948681482302375
  0.3169550108184076  0.1547410571493045  0.7573918843714694
  0.5082321338016333  0.7002940740083748  0.7359486886244193
  0.8802708309170583  0.9159952876767392  0.7090768195032329
  0.4720116161329655  0.4416189414261130  0.7521774978753429
  0.6578871464620306  0.1821063527550512  0.7230754931136981
  0.5655563456886231  0.3218779813247574  0.7557823734913169
  0.1833212215339615  0.4172358653442214  0.6946014834789344
  0.8814285846249046  0.4601686393372724  0.7439426413662461
  0.1409942621931558  0.9783527729511129  0.7927098571665294
  0.8414594219561609  0.9685456895116256  0.7726842006153345
  0.0691904446832722  0.0160329068832962  0.7402588225326229
  0.2678501988338521  0.9250615396237315  0.7840776632967904
  0.1915132490070971  0.1899494313803973  0.7186989905276450
  0.4565965471476096  0.1056872882313683  0.7578986847456289
  0.5651602358081347  0.9634226695746654  0.8182193619993799
  0.7596447867526122  0.8846859209245144  0.6689337184638089
  0.1060908954283912  0.7927886572122709  0.7275153881940880
  0.9042636288178185  0.7976745253601100  0.7642076490376440
  0.0168501091926042  0.4271785127895695  0.7250858557149615
  0.6897331593419066  0.2491703142861164  0.7833762847680423
  0.7563798602611175  0.0761475957258508  0.6891809668081823
  0.0738953070071284  0.4803655993342759  0.6506133959841938
 
  0.00000000E+00  0.00000000E+00  0.00000000E+00
  0.00000000E+00  0.00000000E+00  0.00000000E+00
  0.00000000E+00  0.00000000E+00  0.00000000E+00
  0.00000000E+00  0.00000000E+00  0.00000000E+00
  0.00000000E+00  0.00000000E+00  0.00000000E+00
  0.00000000E+00  0.00000000E+00  0.00000000E+00
  0.00000000E+00  0.00000000E+00  0.00000000E+00
  0.00000000E+00  0.00000000E+00  0.00000000E+00
  0.00000000E+00  0.00000000E+00  0.00000000E+00
  0.00000000E+00  0.00000000E+00  0.00000000E+00
  0.00000000E+00  0.00000000E+00  0.00000000E+00
  0.00000000E+00  0.00000000E+00  0.00000000E+00
  0.00000000E+00  0.00000000E+00  0.00000000E+00
  0.00000000E+00  0.00000000E+00  0.00000000E+00
  0.00000000E+00  0.00000000E+00  0.00000000E+00
  0.00000000E+00  0.00000000E+00  0.00000000E+00
  0.00000000E+00  0.00000000E+00  0.00000000E+00
  0.00000000E+00  0.00000000E+00  0.00000000E+00
  0.00000000E+00  0.00000000E+00  0.00000000E+00
  0.00000000E+00  0.00000000E+00  0.00000000E+00
  0.00000000E+00  0.00000000E+00  0.00000000E+00
  0.00000000E+00  0.00000000E+00  0.00000000E+00
  0.00000000E+00  0.00000000E+00  0.00000000E+00
  0.00000000E+00  0.00000000E+00  0.00000000E+00
  0.00000000E+00  0.00000000E+00  0.00000000E+00
  0.00000000E+00  0.00000000E+00  0.00000000E+00
  0.00000000E+00  0.00000000E+00  0.00000000E+00
  0.00000000E+00  0.00000000E+00  0.00000000E+00
  0.00000000E+00  0.00000000E+00  0.00000000E+00
  0.00000000E+00  0.00000000E+00  0.00000000E+00
  0.00000000E+00  0.00000000E+00  0.00000000E+00
  0.00000000E+00  0.00000000E+00  0.00000000E+00
  0.00000000E+00  0.00000000E+00  0.00000000E+00
  0.00000000E+00  0.00000000E+00  0.00000000E+00
  0.00000000E+00  0.00000000E+00  0.00000000E+00
  0.00000000E+00  0.00000000E+00  0.00000000E+00
  0.00000000E+00  0.00000000E+00  0.00000000E+00
  0.00000000E+00  0.00000000E+00  0.00000000E+00
  0.00000000E+00  0.00000000E+00  0.00000000E+00
  0.00000000E+00  0.00000000E+00  0.00000000E+00
  0.00000000E+00  0.00000000E+00  0.00000000E+00
  0.00000000E+00  0.00000000E+00  0.00000000E+00
  0.00000000E+00  0.00000000E+00  0.00000000E+00
  0.00000000E+00  0.00000000E+00  0.00000000E+00
  0.00000000E+00  0.00000000E+00  0.00000000E+00
  0.00000000E+00  0.00000000E+00  0.00000000E+00
  0.00000000E+00  0.00000000E+00  0.00000000E+00
  0.00000000E+00  0.00000000E+00  0.00000000E+00
  0.00000000E+00  0.00000000E+00  0.00000000E+00
  0.00000000E+00  0.00000000E+00  0.00000000E+00
  0.00000000E+00  0.00000000E+00  0.00000000E+00
  0.00000000E+00  0.00000000E+00  0.00000000E+00
  0.00000000E+00  0.00000000E+00  0.00000000E+00
  0.00000000E+00  0.00000000E+00  0.00000000E+00
  0.00000000E+00  0.00000000E+00  0.00000000E+00
  0.00000000E+00  0.00000000E+00  0.00000000E+00
  0.00000000E+00  0.00000000E+00  0.00000000E+00
  0.00000000E+00  0.00000000E+00  0.00000000E+00
  0.00000000E+00  0.00000000E+00  0.00000000E+00
  0.00000000E+00  0.00000000E+00  0.00000000E+00
  0.00000000E+00  0.00000000E+00  0.00000000E+00
  0.00000000E+00  0.00000000E+00  0.00000000E+00
  0.00000000E+00  0.00000000E+00  0.00000000E+00
  0.00000000E+00  0.00000000E+00  0.00000000E+00
  0.00000000E+00  0.00000000E+00  0.00000000E+00
  0.00000000E+00  0.00000000E+00  0.00000000E+00
  0.00000000E+00  0.00000000E+00  0.00000000E+00
  0.00000000E+00  0.00000000E+00  0.00000000E+00
  0.00000000E+00  0.00000000E+00  0.00000000E+00
  0.00000000E+00  0.00000000E+00  0.00000000E+00
  0.00000000E+00  0.00000000E+00  0.00000000E+00
  0.00000000E+00  0.00000000E+00  0.00000000E+00
  0.00000000E+00  0.00000000E+00  0.00000000E+00
  0.00000000E+00  0.00000000E+00  0.00000000E+00
  0.00000000E+00  0.00000000E+00  0.00000000E+00
  0.00000000E+00  0.00000000E+00  0.00000000E+00
  0.00000000E+00  0.00000000E+00  0.00000000E+00
  0.00000000E+00  0.00000000E+00  0.00000000E+00
  0.00000000E+00  0.00000000E+00  0.00000000E+00
  0.00000000E+00  0.00000000E+00  0.00000000E+00
  0.00000000E+00  0.00000000E+00  0.00000000E+00
  0.00000000E+00  0.00000000E+00  0.00000000E+00
  0.00000000E+00  0.00000000E+00  0.00000000E+00
  0.00000000E+00  0.00000000E+00  0.00000000E+00
  0.00000000E+00  0.00000000E+00  0.00000000E+00
  0.00000000E+00  0.00000000E+00  0.00000000E+00
  0.00000000E+00  0.00000000E+00  0.00000000E+00
  0.00000000E+00  0.00000000E+00  0.00000000E+00
  0.00000000E+00  0.00000000E+00  0.00000000E+00
  0.00000000E+00  0.00000000E+00  0.00000000E+00
  0.00000000E+00  0.00000000E+00  0.00000000E+00
  0.00000000E+00  0.00000000E+00  0.00000000E+00
  0.00000000E+00  0.00000000E+00  0.00000000E+00
  0.00000000E+00  0.00000000E+00  0.00000000E+00
  0.00000000E+00  0.00000000E+00  0.00000000E+00
  0.00000000E+00  0.00000000E+00  0.00000000E+00
  0.00000000E+00  0.00000000E+00  0.00000000E+00
  0.00000000E+00  0.00000000E+00  0.00000000E+00
  0.00000000E+00  0.00000000E+00  0.00000000E+00
  0.00000000E+00  0.00000000E+00  0.00000000E+00
  0.00000000E+00  0.00000000E+00  0.00000000E+00
  0.00000000E+00  0.00000000E+00  0.00000000E+00
  0.00000000E+00  0.00000000E+00  0.00000000E+00
  0.00000000E+00  0.00000000E+00  0.00000000E+00
  0.00000000E+00  0.00000000E+00  0.00000000E+00
  0.00000000E+00  0.00000000E+00  0.00000000E+00
  0.00000000E+00  0.00000000E+00  0.00000000E+00
  0.00000000E+00  0.00000000E+00  0.00000000E+00
  0.00000000E+00  0.00000000E+00  0.00000000E+00
  0.00000000E+00  0.00000000E+00  0.00000000E+00
  0.00000000E+00  0.00000000E+00  0.00000000E+00
  0.00000000E+00  0.00000000E+00  0.00000000E+00
  0.00000000E+00  0.00000000E+00  0.00000000E+00
  0.00000000E+00  0.00000000E+00  0.00000000E+00
  0.00000000E+00  0.00000000E+00  0.00000000E+00
  0.00000000E+00  0.00000000E+00  0.00000000E+00
  0.00000000E+00  0.00000000E+00  0.00000000E+00
  0.00000000E+00  0.00000000E+00  0.00000000E+00
  0.00000000E+00  0.00000000E+00  0.00000000E+00
  0.00000000E+00  0.00000000E+00  0.00000000E+00
  0.00000000E+00  0.00000000E+00  0.00000000E+00
  0.00000000E+00  0.00000000E+00  0.00000000E+00
  0.00000000E+00  0.00000000E+00  0.00000000E+00
  0.00000000E+00  0.00000000E+00  0.00000000E+00
  0.00000000E+00  0.00000000E+00  0.00000000E+00
  0.00000000E+00  0.00000000E+00  0.00000000E+00
  0.00000000E+00  0.00000000E+00  0.00000000E+00
  0.00000000E+00  0.00000000E+00  0.00000000E+00
  0.00000000E+00  0.00000000E+00  0.00000000E+00
  0.00000000E+00  0.00000000E+00  0.00000000E+00
  0.00000000E+00  0.00000000E+00  0.00000000E+00
  0.00000000E+00  0.00000000E+00  0.00000000E+00
  0.00000000E+00  0.00000000E+00  0.00000000E+00
  0.00000000E+00  0.00000000E+00  0.00000000E+00
  0.00000000E+00  0.00000000E+00  0.00000000E+00
  0.00000000E+00  0.00000000E+00  0.00000000E+00
  0.00000000E+00  0.00000000E+00  0.00000000E+00
  0.00000000E+00  0.00000000E+00  0.00000000E+00
  0.00000000E+00  0.00000000E+00  0.00000000E+00
  0.00000000E+00  0.00000000E+00  0.00000000E+00
  0.00000000E+00  0.00000000E+00  0.00000000E+00
  0.00000000E+00  0.00000000E+00  0.00000000E+00
  0.00000000E+00  0.00000000E+00  0.00000000E+00
  0.00000000E+00  0.00000000E+00  0.00000000E+00
  0.00000000E+00  0.00000000E+00  0.00000000E+00
  0.00000000E+00  0.00000000E+00  0.00000000E+00
  0.00000000E+00  0.00000000E+00  0.00000000E+00
  0.00000000E+00  0.00000000E+00  0.00000000E+00
  0.00000000E+00  0.00000000E+00  0.00000000E+00
  0.00000000E+00  0.00000000E+00  0.00000000E+00
  0.00000000E+00  0.00000000E+00  0.00000000E+00
  0.00000000E+00  0.00000000E+00  0.00000000E+00
  0.00000000E+00  0.00000000E+00  0.00000000E+00
  0.00000000E+00  0.00000000E+00  0.00000000E+00
  0.00000000E+00  0.00000000E+00  0.00000000E+00
  0.00000000E+00  0.00000000E+00  0.00000000E+00
  0.00000000E+00  0.00000000E+00  0.00000000E+00
  0.00000000E+00  0.00000000E+00  0.00000000E+00
  0.00000000E+00  0.00000000E+00  0.00000000E+00
  0.00000000E+00  0.00000000E+00  0.00000000E+00
  0.00000000E+00  0.00000000E+00  0.00000000E+00
  0.00000000E+00  0.00000000E+00  0.00000000E+00
  0.00000000E+00  0.00000000E+00  0.00000000E+00
  0.00000000E+00  0.00000000E+00  0.00000000E+00
  0.00000000E+00  0.00000000E+00  0.00000000E+00
  0.00000000E+00  0.00000000E+00  0.00000000E+00
  0.00000000E+00  0.00000000E+00  0.00000000E+00
  0.00000000E+00  0.00000000E+00  0.00000000E+00
  0.00000000E+00  0.00000000E+00  0.00000000E+00
  0.00000000E+00  0.00000000E+00  0.00000000E+00
  0.00000000E+00  0.00000000E+00  0.00000000E+00
  0.00000000E+00  0.00000000E+00  0.00000000E+00
  0.00000000E+00  0.00000000E+00  0.00000000E+00
  0.00000000E+00  0.00000000E+00  0.00000000E+00
  0.00000000E+00  0.00000000E+00  0.00000000E+00
  0.00000000E+00  0.00000000E+00  0.00000000E+00
  0.00000000E+00  0.00000000E+00  0.00000000E+00
  0.00000000E+00  0.00000000E+00  0.00000000E+00
  0.00000000E+00  0.00000000E+00  0.00000000E+00
  0.00000000E+00  0.00000000E+00  0.00000000E+00
  0.00000000E+00  0.00000000E+00  0.00000000E+00
  0.00000000E+00  0.00000000E+00  0.00000000E+00
  0.00000000E+00  0.00000000E+00  0.00000000E+00
  0.00000000E+00  0.00000000E+00  0.00000000E+00
  0.00000000E+00  0.00000000E+00  0.00000000E+00
  0.00000000E+00  0.00000000E+00  0.00000000E+00
  0.00000000E+00  0.00000000E+00  0.00000000E+00
  0.00000000E+00  0.00000000E+00  0.00000000E+00
  0.00000000E+00  0.00000000E+00  0.00000000E+00
  0.00000000E+00  0.00000000E+00  0.00000000E+00
  0.00000000E+00  0.00000000E+00  0.00000000E+00
  0.00000000E+00  0.00000000E+00  0.00000000E+00
  0.00000000E+00  0.00000000E+00  0.00000000E+00
  0.00000000E+00  0.00000000E+00  0.00000000E+00
  0.00000000E+00  0.00000000E+00  0.00000000E+00
  0.00000000E+00  0.00000000E+00  0.00000000E+00
  0.00000000E+00  0.00000000E+00  0.00000000E+00
  0.00000000E+00  0.00000000E+00  0.00000000E+00
  0.00000000E+00  0.00000000E+00  0.00000000E+00
  0.00000000E+00  0.00000000E+00  0.00000000E+00
  0.00000000E+00  0.00000000E+00  0.00000000E+00
  0.00000000E+00  0.00000000E+00  0.00000000E+00
  0.00000000E+00  0.00000000E+00  0.00000000E+00
  0.00000000E+00  0.00000000E+00  0.00000000E+00
  0.00000000E+00  0.00000000E+00  0.00000000E+00
  0.00000000E+00  0.00000000E+00  0.00000000E+00
  0.00000000E+00  0.00000000E+00  0.00000000E+00
  0.00000000E+00  0.00000000E+00  0.00000000E+00
  0.00000000E+00  0.00000000E+00  0.00000000E+00
  0.00000000E+00  0.00000000E+00  0.00000000E+00
  0.00000000E+00  0.00000000E+00  0.00000000E+00
  0.00000000E+00  0.00000000E+00  0.00000000E+00
  0.00000000E+00  0.00000000E+00  0.00000000E+00
  0.00000000E+00  0.00000000E+00  0.00000000E+00
  0.00000000E+00  0.00000000E+00  0.00000000E+00
  0.00000000E+00  0.00000000E+00  0.00000000E+00
  0.00000000E+00  0.00000000E+00  0.00000000E+00
  0.00000000E+00  0.00000000E+00  0.00000000E+00
  0.00000000E+00  0.00000000E+00  0.00000000E+00
  0.00000000E+00  0.00000000E+00  0.00000000E+00
  0.00000000E+00  0.00000000E+00  0.00000000E+00
  0.00000000E+00  0.00000000E+00  0.00000000E+00
  0.00000000E+00  0.00000000E+00  0.00000000E+00
  0.00000000E+00  0.00000000E+00  0.00000000E+00
  0.00000000E+00  0.00000000E+00  0.00000000E+00
  0.00000000E+00  0.00000000E+00  0.00000000E+00
  0.00000000E+00  0.00000000E+00  0.00000000E+00
  0.00000000E+00  0.00000000E+00  0.00000000E+00
  0.00000000E+00  0.00000000E+00  0.00000000E+00
  0.00000000E+00  0.00000000E+00  0.00000000E+00
  0.00000000E+00  0.00000000E+00  0.00000000E+00
  0.00000000E+00  0.00000000E+00  0.00000000E+00
  0.00000000E+00  0.00000000E+00  0.00000000E+00
  0.00000000E+00  0.00000000E+00  0.00000000E+00
  0.00000000E+00  0.00000000E+00  0.00000000E+00
  0.00000000E+00  0.00000000E+00  0.00000000E+00
  0.00000000E+00  0.00000000E+00  0.00000000E+00
  0.00000000E+00  0.00000000E+00  0.00000000E+00
  0.00000000E+00  0.00000000E+00  0.00000000E+00
  0.00000000E+00  0.00000000E+00  0.00000000E+00
  0.00000000E+00  0.00000000E+00  0.00000000E+00
  0.00000000E+00  0.00000000E+00  0.00000000E+00
  0.00000000E+00  0.00000000E+00  0.00000000E+00
  0.00000000E+00  0.00000000E+00  0.00000000E+00
  0.00000000E+00  0.00000000E+00  0.00000000E+00
  0.00000000E+00  0.00000000E+00  0.00000000E+00
  0.00000000E+00  0.00000000E+00  0.00000000E+00
  0.00000000E+00  0.00000000E+00  0.00000000E+00
  0.00000000E+00  0.00000000E+00  0.00000000E+00
  0.00000000E+00  0.00000000E+00  0.00000000E+00
  0.00000000E+00  0.00000000E+00  0.00000000E+00
  0.00000000E+00  0.00000000E+00  0.00000000E+00
  0.00000000E+00  0.00000000E+00  0.00000000E+00
  0.00000000E+00  0.00000000E+00  0.00000000E+00
  0.00000000E+00  0.00000000E+00  0.00000000E+00
  0.00000000E+00  0.00000000E+00  0.00000000E+00
  0.00000000E+00  0.00000000E+00  0.00000000E+00
  0.00000000E+00  0.00000000E+00  0.00000000E+00
  0.00000000E+00  0.00000000E+00  0.00000000E+00
  0.00000000E+00  0.00000000E+00  0.00000000E+00
  0.00000000E+00  0.00000000E+00  0.00000000E+00
  0.00000000E+00  0.00000000E+00  0.00000000E+00