Hf  O  F  H                             
   1.00000000000000     
    13.7225301000000002    0.0000000000000000    0.0000000000000000
     0.0000000000000000   13.7225301000000002    0.0000000000000000
     0.0000000000000000    0.0000000000000000   32.7225301000000002
   Hf   O    F    H 
    72   144     8     8
Direct
  0.1748371028226219  0.8357519899315468  0.4117745390970437
  0.8554853141543022  0.9485859929506429  0.5080896143645337
  0.0310607256520371  0.6458663180934828  0.3923130428384738
  0.8967398538193819  0.6256596685043475  0.2924493039007264
  0.0922650446650401  0.7789411433343704  0.3088353121449270
  0.3975235954905940  0.9710804641154898  0.5653262844432630
  0.6569524037357051  0.4879586918337397  0.2759451150357375
  0.6529091432820394  0.7438710739277418  0.2650547336771626
  0.0328077348159270  0.6382621741258074  0.6700820977501237
  0.2907839383821254  0.0553228250549481  0.4110476714042674
  0.9404795092619705  0.7495470779495662  0.4708125754799370
  0.3116160450400324  0.7541421770291039  0.3060825748366791
  0.1225711424090831  0.5268954499536708  0.3166025206817855
  0.3370035624813164  0.1739926611314053  0.5178786409822220
  0.5153418378078600  0.9892090548438306  0.6665995934541550
  0.2654702010970079  0.6290217488049193  0.6559779514153622
  0.5413400193848217  0.3743795360477516  0.5398474390554003
  0.4775514397467254  0.9833731012197203  0.3300000534263858
  0.3089785838423678  0.6343544428486351  0.3986721377461143
  0.8982641096705882  0.7163060306760224  0.5695364337349156
  0.8601307499419417  0.4212067780840817  0.3207301462903682
  0.9019285996578907  0.1056349134752773  0.5821570824664318
  0.0360290389461754  0.3788399408772060  0.4035415902658601
  0.9112966982271833  0.4843639577469744  0.5915269788067105
  0.1391297778408700  0.5396347528459270  0.5859558392713664
  0.1498818445904175  0.2344759578770169  0.4585390750272471
  0.1068021932012241  0.2862236671230288  0.5572495435773132
  0.7416053689119414  0.5702606236855873  0.5148801215500529
  0.3735531805535025  0.1430512169830640  0.6345663993136618
  0.6327197972966599  0.1562426929912612  0.6171889480404821
  0.5189851900199962  0.3166281126267189  0.6765408041097803
  0.2628369346049010  0.4446756274351560  0.4890020538225079
  0.2996514570209584  0.3521666896211366  0.6051183068618393
  0.8662150011611769  0.9731700633080157  0.4066174090649406
  0.1609892903924778  0.0248162320644649  0.4995874279840339
  0.7818892937498093  0.7430106430501040  0.6580769039209158
  0.5085347409840024  0.6249647083138015  0.3414936910449459
  0.0208365495600285  0.4887915238573613  0.5016365132971167
  0.8867657553570892  0.8738229590792189  0.2946486405653040
  0.4476939095953161  0.8193669544227176  0.4288011985192090
  0.4273448871505613  0.3355840402539562  0.4442042442492228
  0.5870740751741238  0.8196627696995187  0.5102743643078780
  0.3615083366366239  0.7321601548405422  0.5572316358384627
  0.1415219051876673  0.8261640170244863  0.5797146907589850
  0.6837789016213413  0.2404749899997727  0.4395988456814836
  0.5693231828451165  0.0127689974116783  0.4212654632849627
  0.2821721708131508  0.9312278682481525  0.6500026503679051
  0.4818298173535546  0.5670409510250489  0.4804681809172269
  0.5804042824034714  0.1488799670847888  0.5224713178425290
  0.0693687770324276  0.0230934083014152  0.3591622004002648
  0.8138527761458924  0.4243886360423887  0.4416551523269720
  0.7027245957276285  0.9348650819179699  0.5872883316032242
  0.4815339167085415  0.7691552143004808  0.6627083682899370
  0.6754998236242936  0.8591473873671355  0.3613372871318221
  0.2728378178776968  0.9927112321795933  0.3071303325329877
  0.4501582251690173  0.5512360102912511  0.6084198616593852
  0.6836631051316051  0.2610650295578285  0.2974017629285829
  0.6329781025755460  0.7010498314217687  0.5918472830455956
 -0.0059772664538111  0.8941139917046897  0.6530362366314052
  0.7557304473494731  0.6330406367189211  0.3938223203518681
  0.2978555560775313  0.4127771929990211  0.3652475291385061
  0.6789412315507801 -0.0027970738186088  0.2587685744879841
  0.5799483835496567  0.4161702999148185  0.3763603984226374
  0.4439075528216634  0.2123714545501642  0.3621975946188913
  0.6686914020337782  0.4816013709709007  0.6329827894546640
  0.1777092352508038  0.6724391388954721  0.4813748801753712
  0.8169896793005237  0.3006600506101308  0.6470676289563516
  0.8928056298034331  0.2215514856030699  0.3695955280399287
  0.0772737125232938  0.1722221778415715  0.6459953456529863
  0.7856230708884402  0.3326137211191066  0.5342626834168078
  0.9325236311868261  0.1734048458319833  0.4830352955508521
  0.1663622766480742  0.2370254779047652  0.3407000347890363
  0.3117724547186994  0.2660180334874569  0.3375122597889760
  0.9296603915071330  0.8274693706786964  0.5243336808321746
  0.3738728501291843  0.8797624817247843  0.3270820917956612
  0.5586743361277710  0.8987169365225329  0.4597688994892740
  0.0494169068289596  0.4269693881373400  0.5612522618592209
  0.0462699397887110  0.5050331884147307  0.3723912268506083
 -0.0115572988993140  0.0511778227071018  0.6327260175949950
  0.3040637746061420  0.5909935931056305  0.4626380341728577
  0.2050874393168430  0.9561043444625561  0.4464556036974829
  0.0245260547577707  0.2844998498847393  0.3454320159470453
  0.4007542840171311  0.0245099270536019  0.2801015136952866
  0.1198759113040762  0.9227515559123468  0.5380426659394014
  0.4386021738305241  0.8909451085208383  0.6310884524531519
  0.7059676118949479  0.9720007716233329  0.4009664599490478
  0.2913712246103397  0.0264867438563873  0.5280885598406384
  0.5120298708435007  0.3255423728938647  0.7308068183820531
  0.0398538548555876  0.7768796863226536  0.6812837278905655
  0.7645929063669694  0.5676959904313634  0.4465747637465536
  0.8717785509737881  0.3400208206076906  0.5860604977664112
  0.3427559902187574  0.2159908726038577  0.5772460081622108
  0.8388204701491503  0.9734434414283540  0.5724472367156992
  0.3035435404467574  0.7798408590783750  0.4382063724334676
  0.0207603862036400  0.9205614238653621  0.3130580572813524
  0.7142932263822158  0.9068524389519830  0.5176687068929081
  0.3955771607599557  0.5415423356706549  0.3628779790329300
  0.9736493692849804  0.7594551215560957  0.2724015560958273
  0.8223680101784724  0.2844796757345458  0.4663053419234235
  0.0870663684423321  0.7935216943310911  0.4608251273225111
  0.1443496754371401  0.6717118749568849  0.6186003310106927
  0.8834549992319533  0.3830449544312130  0.3803083116768283
  0.5082217275725645  0.7184462799167352  0.4680872417954430
  0.7999042273800898  0.5824294930322290  0.5719514808111451
  0.1801920818489847  0.1818126735928624  0.5250242465983549
  0.5719591853725896  0.2765049078841050  0.3337135348673867
  0.9802136714168567  0.4926556644981738  0.2923863414308546
  0.6511874820823297  0.6916054592699840  0.5272173997088733
  0.5519967442322977  0.2733552496300170  0.4154705601029829
  0.0021134347137516  0.6070621019309094  0.5582405347554574
  0.0294494908202803  0.2805347174690216  0.5021654127625711
  0.4682304784617117  0.2581866712080659  0.5018303242900729
  0.4127832304953703  0.4349802523457365  0.4962552152836505
  0.9028328344580285  0.6890012003450646  0.4134116800413870
  0.4460079211842424  0.7056061775007434  0.3890723325176439
  0.5251772272641607  0.1601166102265095  0.6631895246519250
  0.8039305035310820  0.5187434166962326  0.2719553491280458
  0.8662191003598839  0.8701150677673858  0.4511185193764549
  0.5632996503123836  0.2375694718510636  0.5734062930298133
  0.6535448134210440  0.2742042395600893  0.5038520039671448
  0.7877730133707390  0.1678014742876928  0.6172677835080090
  0.2115725920077758  0.8604178911605279  0.2853074901200857
  0.3548171579041781  0.0718209705594840  0.3517464457606848
  0.7015933235419377  0.6247285880999399  0.6387462944744592
  0.3122850026094353  0.6229979879681790  0.5951665722696177
  0.5451169597560239  0.4937450320547605  0.3149494362459953
  0.8557298037176256  0.8604147968813383  0.6902019964251517
  0.2193310799986894  0.7395686936399499  0.5331866328978889
  0.4573485497980060  0.0730065014392873  0.5233879557976689
  0.1264048477433323  0.4061121734867512  0.4633547951300058
  0.2053851247349767  0.9491575292473003  0.3667202074397349
  0.6267045299676640  0.7826029858310581  0.6489463798135239
  0.6585079656528740  0.0701237885445368  0.5628782426015798
  0.2226940644925882  0.5455350569875658  0.3611525470885250
  0.4335398303277495  0.6850693621473438  0.2948137946376281
  0.4290503478360146  0.4167767601916360  0.5786756563087981
  0.0144796394880941  0.9459840989811423  0.4038953750010348
  0.9565469483134097  0.0557595820400992  0.5250606485040398
  0.2453888977430871  0.4821994706494658  0.6285010125830123
  0.6227979889778021  0.9548181575835709  0.3112459189511610
  0.8320147426079377  0.2718514615755522  0.3131981927080165
  0.0340326874994236  0.6215745233884835  0.4718550288971046
 -0.0177013223109651  0.2449739873656523  0.4229960246186170
  0.4806034871002256  0.7102829033990743  0.6013075887324827
  0.4361514848117236  0.3611012314302422  0.3745348457900022
  0.2565253851098541  0.1253074831547595  0.4632976228344068
  0.8410060541381480  0.1923400398909742  0.5340689998710320
  0.1699433968169014  0.2781137552575171  0.6150061221356230
  0.0190032172966760  0.1946760607505220  0.5862581461011346
  0.8988103071362257  0.6731038590300320  0.6339448873455091
  0.6354269800686229  0.8694506586748657  0.2346433143117205
  0.7672704342538404  0.7802809958812285  0.5915673699689610
  0.4813304039002242  0.0597486938069878  0.6045729228604905
  0.8509130146394027  0.6707228781396782  0.5068627980433420
  0.2926999896634072  0.8444681884851249  0.5921228522958008
  0.3786658851216238  0.0334375651412426  0.6788281657555397
  0.3806765086922513  0.1940075266184416  0.4158052753699593
  0.6197310098158225  0.1117150695433950  0.4616101386738654
  0.1665492535681221  0.5481286253678518  0.5188740965141375
  0.5138426218582083  0.4637312599775925  0.4314150425834252
  0.1830538454313641  0.3936787368073488  0.3176058444416098
  0.5348368802780501  0.8890164633651521  0.3790384647086426
  0.8397326687525143  0.5804429929813120  0.3456733377712405
  0.5862092727391879  0.5583606193163355  0.5881260756524677
  0.0208659535711506  0.6487819438795439  0.3285734013567543
  0.6763084650706691  0.3948148529101869  0.5702384781329385
  0.2596267556968689  0.7458468411122202  0.3613919884399706
  0.8868878876864346  0.4585061448402537  0.5255551543065311
  0.8544112321909773  0.0566233257863276  0.4569462429559687
  0.2994389925087569  0.0291660345944639  0.6053831290151357
  0.7121828404338280  0.4134544820645280  0.3256245983041414
  0.7673014735655057  0.1857867295221371  0.3951566244168251
  0.5356050435628236  0.0883294302676048  0.3684833329737431
 -0.0018787813545852  0.8141925288629784  0.5976601063192156
  0.3772068071154633  0.2893473763254477  0.6517465621331744
  0.4105935559892061  0.9740697305418893  0.4242179145349079
  0.6285639580293230  0.5677968860443164  0.3773846644625711
  0.6621835359907120  0.1414074433760772  0.2636850500721625
  0.7011863031863854  0.7602395946753661  0.4022515655454634
  0.8257434455770456  0.8842116773624875  0.3496185534280625
  0.9564051971293371  0.4579203211687758  0.4460218138988192
  0.8375707182636920  0.8864326721112341  0.6461958163946218
  0.5864381761066509  0.5069172346450898  0.5116080410712315
  0.0304879770280939  0.5166826493296827  0.6285319828351467
  0.4153458514914384  0.6239683892061925  0.6651566342874913
  0.6290973392320186  0.6137561948991801  0.2446216085949323
  0.5227413389096623  0.4546719448448624  0.6478730930966270
  0.6147398944199174  0.7430364594866191  0.3237461121059407
  0.7944659290920001  0.7462061439585631  0.2822182563601285
  0.7001088664089117  0.3770064329713997  0.4091871044618097
  0.7360731222458057  0.4326494314236732  0.4924082499677856
  0.3110229125867788  0.4258506279640284  0.4261861796149993
  0.7747151390824265  0.6559893755480903  0.7139007525524433
  0.5095344422790602  0.8734751493707721  0.7029106983432127
  0.8177065280068916 -0.0278637162669902  0.2627617874172709
  0.1571783139187416  0.1329171466403378  0.3883942267462878
  0.2212680697063466  0.1246771606195702  0.6618044013850493
  0.5919708652317102  0.8483552521069586  0.5715492869169982
  0.1740144816795140  0.3178432504985136  0.3958418622347370
  0.0671677345714135  0.1126124986815840  0.4661243092776531
  0.2313723698540206  0.3869803007289997  0.5496455707386657
  0.9695003856788137  0.2771092093188902  0.6591398452132038
  0.0715923788118120  0.7821066221194201  0.3703213921901451
  0.9291563522484163  0.0803069367085391  0.3625117893998916
  0.6512938100250236  0.0086318280803631  0.6384205470707625
  0.4237067529515896  0.6159525242496159  0.5327669944948545
  0.8159031505303966  0.4495050827308176  0.6396879716020797
  0.1648647400331540  0.6628938132220020  0.4177455490610922
  0.4374157498791956  0.8465048281868437  0.5299740759952153
  0.1630610669943379  0.5976760317059698  0.6951090239641708
  0.3062566942054637  0.7805012401976337  0.6757552120750706
  0.1866138155657512  0.6611925029799646  0.2914273130652832
  0.1620446294829374  0.0978393734029614  0.3106825891137474
  0.6628836776599754  0.2998059647080772  0.6473094404806017
  0.1408472770169914  0.9089839579243212  0.6320860777200568
  0.2873826462592811  0.2959248293293453  0.4797369706691873
  0.1484179954511483  0.4120737810585826  0.7164956795590931
  0.8162362339414877  0.2814635347659277  0.7053974301368662
  0.2180957166792410  0.9350437637516603  0.7085917558333803
  0.9519186570727469  0.5951926316176661  0.7163800628225584
  0.6773833298953527  0.4895686373784003  0.6941130305112568
  0.0517569253372379  0.9638935716091140  0.7069858832845349
  0.5211352712856332  0.3004506899854716  0.8061974332051212
  0.0713583047427684  0.1703303754281068  0.7054149305185670
  0.9750237981329487  0.2845460926172814  0.6889651067870333
  0.2823978704614391  0.7912422347231706  0.7037291136054572
  0.8402455429946820  0.6337106564213059  0.7236904707960734
  0.1546267111404064  0.4812413560420958  0.7116821837791437
  0.7360776179285569  0.5944129295244005  0.7095581066191273
  0.1283408940659437  0.9496178504970287  0.7106695932031681
  0.5176364337461168  0.3123913352113856  0.7763673696188713
  0.2230075049236893  0.1297723871332255  0.6916714005987370
 
  0.00000000E+00  0.00000000E+00  0.00000000E+00
  0.00000000E+00  0.00000000E+00  0.00000000E+00
  0.00000000E+00  0.00000000E+00  0.00000000E+00
  0.00000000E+00  0.00000000E+00  0.00000000E+00
  0.00000000E+00  0.00000000E+00  0.00000000E+00
  0.00000000E+00  0.00000000E+00  0.00000000E+00
  0.00000000E+00  0.00000000E+00  0.00000000E+00
  0.00000000E+00  0.00000000E+00  0.00000000E+00
  0.00000000E+00  0.00000000E+00  0.00000000E+00
  0.00000000E+00  0.00000000E+00  0.00000000E+00
  0.00000000E+00  0.00000000E+00  0.00000000E+00
  0.00000000E+00  0.00000000E+00  0.00000000E+00
  0.00000000E+00  0.00000000E+00  0.00000000E+00
  0.00000000E+00  0.00000000E+00  0.00000000E+00
  0.00000000E+00  0.00000000E+00  0.00000000E+00
  0.00000000E+00  0.00000000E+00  0.00000000E+00
  0.00000000E+00  0.00000000E+00  0.00000000E+00
  0.00000000E+00  0.00000000E+00  0.00000000E+00
  0.00000000E+00  0.00000000E+00  0.00000000E+00
  0.00000000E+00  0.00000000E+00  0.00000000E+00
  0.00000000E+00  0.00000000E+00  0.00000000E+00
  0.00000000E+00  0.00000000E+00  0.00000000E+00
  0.00000000E+00  0.00000000E+00  0.00000000E+00
  0.00000000E+00  0.00000000E+00  0.00000000E+00
  0.00000000E+00  0.00000000E+00  0.00000000E+00
  0.00000000E+00  0.00000000E+00  0.00000000E+00
  0.00000000E+00  0.00000000E+00  0.00000000E+00
  0.00000000E+00  0.00000000E+00  0.00000000E+00
  0.00000000E+00  0.00000000E+00  0.00000000E+00
  0.00000000E+00  0.00000000E+00  0.00000000E+00
  0.00000000E+00  0.00000000E+00  0.00000000E+00
  0.00000000E+00  0.00000000E+00  0.00000000E+00
  0.00000000E+00  0.00000000E+00  0.00000000E+00
  0.00000000E+00  0.00000000E+00  0.00000000E+00
  0.00000000E+00  0.00000000E+00  0.00000000E+00
  0.00000000E+00  0.00000000E+00  0.00000000E+00
  0.00000000E+00  0.00000000E+00  0.00000000E+00
  0.00000000E+00  0.00000000E+00  0.00000000E+00
  0.00000000E+00  0.00000000E+00  0.00000000E+00
  0.00000000E+00  0.00000000E+00  0.00000000E+00
  0.00000000E+00  0.00000000E+00  0.00000000E+00
  0.00000000E+00  0.00000000E+00  0.00000000E+00
  0.00000000E+00  0.00000000E+00  0.00000000E+00
  0.00000000E+00  0.00000000E+00  0.00000000E+00
  0.00000000E+00  0.00000000E+00  0.00000000E+00
  0.00000000E+00  0.00000000E+00  0.00000000E+00
  0.00000000E+00  0.00000000E+00  0.00000000E+00
  0.00000000E+00  0.00000000E+00  0.00000000E+00
  0.00000000E+00  0.00000000E+00  0.00000000E+00
  0.00000000E+00  0.00000000E+00  0.00000000E+00
  0.00000000E+00  0.00000000E+00  0.00000000E+00
  0.00000000E+00  0.00000000E+00  0.00000000E+00
  0.00000000E+00  0.00000000E+00  0.00000000E+00
  0.00000000E+00  0.00000000E+00  0.00000000E+00
  0.00000000E+00  0.00000000E+00  0.00000000E+00
  0.00000000E+00  0.00000000E+00  0.00000000E+00
  0.00000000E+00  0.00000000E+00  0.00000000E+00
  0.00000000E+00  0.00000000E+00  0.00000000E+00
  0.00000000E+00  0.00000000E+00  0.00000000E+00
  0.00000000E+00  0.00000000E+00  0.00000000E+00
  0.00000000E+00  0.00000000E+00  0.00000000E+00
  0.00000000E+00  0.00000000E+00  0.00000000E+00
  0.00000000E+00  0.00000000E+00  0.00000000E+00
  0.00000000E+00  0.00000000E+00  0.00000000E+00
  0.00000000E+00  0.00000000E+00  0.00000000E+00
  0.00000000E+00  0.00000000E+00  0.00000000E+00
  0.00000000E+00  0.00000000E+00  0.00000000E+00
  0.00000000E+00  0.00000000E+00  0.00000000E+00
  0.00000000E+00  0.00000000E+00  0.00000000E+00
  0.00000000E+00  0.00000000E+00  0.00000000E+00
  0.00000000E+00  0.00000000E+00  0.00000000E+00
  0.00000000E+00  0.00000000E+00  0.00000000E+00
  0.00000000E+00  0.00000000E+00  0.00000000E+00
  0.00000000E+00  0.00000000E+00  0.00000000E+00
  0.00000000E+00  0.00000000E+00  0.00000000E+00
  0.00000000E+00  0.00000000E+00  0.00000000E+00
  0.00000000E+00  0.00000000E+00  0.00000000E+00
  0.00000000E+00  0.00000000E+00  0.00000000E+00
  0.00000000E+00  0.00000000E+00  0.00000000E+00
  0.00000000E+00  0.00000000E+00  0.00000000E+00
  0.00000000E+00  0.00000000E+00  0.00000000E+00
  0.00000000E+00  0.00000000E+00  0.00000000E+00
  0.00000000E+00  0.00000000E+00  0.00000000E+00
  0.00000000E+00  0.00000000E+00  0.00000000E+00
  0.00000000E+00  0.00000000E+00  0.00000000E+00
  0.00000000E+00  0.00000000E+00  0.00000000E+00
  0.00000000E+00  0.00000000E+00  0.00000000E+00
  0.00000000E+00  0.00000000E+00  0.00000000E+00
  0.00000000E+00  0.00000000E+00  0.00000000E+00
  0.00000000E+00  0.00000000E+00  0.00000000E+00
  0.00000000E+00  0.00000000E+00  0.00000000E+00
  0.00000000E+00  0.00000000E+00  0.00000000E+00
  0.00000000E+00  0.00000000E+00  0.00000000E+00
  0.00000000E+00  0.00000000E+00  0.00000000E+00
  0.00000000E+00  0.00000000E+00  0.00000000E+00
  0.00000000E+00  0.00000000E+00  0.00000000E+00
  0.00000000E+00  0.00000000E+00  0.00000000E+00
  0.00000000E+00  0.00000000E+00  0.00000000E+00
  0.00000000E+00  0.00000000E+00  0.00000000E+00
  0.00000000E+00  0.00000000E+00  0.00000000E+00
  0.00000000E+00  0.00000000E+00  0.00000000E+00
  0.00000000E+00  0.00000000E+00  0.00000000E+00
  0.00000000E+00  0.00000000E+00  0.00000000E+00
  0.00000000E+00  0.00000000E+00  0.00000000E+00
  0.00000000E+00  0.00000000E+00  0.00000000E+00
  0.00000000E+00  0.00000000E+00  0.00000000E+00
  0.00000000E+00  0.00000000E+00  0.00000000E+00
  0.00000000E+00  0.00000000E+00  0.00000000E+00
  0.00000000E+00  0.00000000E+00  0.00000000E+00
  0.00000000E+00  0.00000000E+00  0.00000000E+00
  0.00000000E+00  0.00000000E+00  0.00000000E+00
  0.00000000E+00  0.00000000E+00  0.00000000E+00
  0.00000000E+00  0.00000000E+00  0.00000000E+00
  0.00000000E+00  0.00000000E+00  0.00000000E+00
  0.00000000E+00  0.00000000E+00  0.00000000E+00
  0.00000000E+00  0.00000000E+00  0.00000000E+00
  0.00000000E+00  0.00000000E+00  0.00000000E+00
  0.00000000E+00  0.00000000E+00  0.00000000E+00
  0.00000000E+00  0.00000000E+00  0.00000000E+00
  0.00000000E+00  0.00000000E+00  0.00000000E+00
  0.00000000E+00  0.00000000E+00  0.00000000E+00
  0.00000000E+00  0.00000000E+00  0.00000000E+00
  0.00000000E+00  0.00000000E+00  0.00000000E+00
  0.00000000E+00  0.00000000E+00  0.00000000E+00
  0.00000000E+00  0.00000000E+00  0.00000000E+00
  0.00000000E+00  0.00000000E+00  0.00000000E+00
  0.00000000E+00  0.00000000E+00  0.00000000E+00
  0.00000000E+00  0.00000000E+00  0.00000000E+00
  0.00000000E+00  0.00000000E+00  0.00000000E+00
  0.00000000E+00  0.00000000E+00  0.00000000E+00
  0.00000000E+00  0.00000000E+00  0.00000000E+00
  0.00000000E+00  0.00000000E+00  0.00000000E+00
  0.00000000E+00  0.00000000E+00  0.00000000E+00
  0.00000000E+00  0.00000000E+00  0.00000000E+00
  0.00000000E+00  0.00000000E+00  0.00000000E+00
  0.00000000E+00  0.00000000E+00  0.00000000E+00
  0.00000000E+00  0.00000000E+00  0.00000000E+00
  0.00000000E+00  0.00000000E+00  0.00000000E+00
  0.00000000E+00  0.00000000E+00  0.00000000E+00
  0.00000000E+00  0.00000000E+00  0.00000000E+00
  0.00000000E+00  0.00000000E+00  0.00000000E+00
  0.00000000E+00  0.00000000E+00  0.00000000E+00
  0.00000000E+00  0.00000000E+00  0.00000000E+00
  0.00000000E+00  0.00000000E+00  0.00000000E+00
  0.00000000E+00  0.00000000E+00  0.00000000E+00
  0.00000000E+00  0.00000000E+00  0.00000000E+00
  0.00000000E+00  0.00000000E+00  0.00000000E+00
  0.00000000E+00  0.00000000E+00  0.00000000E+00
  0.00000000E+00  0.00000000E+00  0.00000000E+00
  0.00000000E+00  0.00000000E+00  0.00000000E+00
  0.00000000E+00  0.00000000E+00  0.00000000E+00
  0.00000000E+00  0.00000000E+00  0.00000000E+00
  0.00000000E+00  0.00000000E+00  0.00000000E+00
  0.00000000E+00  0.00000000E+00  0.00000000E+00
  0.00000000E+00  0.00000000E+00  0.00000000E+00
  0.00000000E+00  0.00000000E+00  0.00000000E+00
  0.00000000E+00  0.00000000E+00  0.00000000E+00
  0.00000000E+00  0.00000000E+00  0.00000000E+00
  0.00000000E+00  0.00000000E+00  0.00000000E+00
  0.00000000E+00  0.00000000E+00  0.00000000E+00
  0.00000000E+00  0.00000000E+00  0.00000000E+00
  0.00000000E+00  0.00000000E+00  0.00000000E+00
  0.00000000E+00  0.00000000E+00  0.00000000E+00
  0.00000000E+00  0.00000000E+00  0.00000000E+00
  0.00000000E+00  0.00000000E+00  0.00000000E+00
  0.00000000E+00  0.00000000E+00  0.00000000E+00
  0.00000000E+00  0.00000000E+00  0.00000000E+00
  0.00000000E+00  0.00000000E+00  0.00000000E+00
  0.00000000E+00  0.00000000E+00  0.00000000E+00
  0.00000000E+00  0.00000000E+00  0.00000000E+00
  0.00000000E+00  0.00000000E+00  0.00000000E+00
  0.00000000E+00  0.00000000E+00  0.00000000E+00
  0.00000000E+00  0.00000000E+00  0.00000000E+00
  0.00000000E+00  0.00000000E+00  0.00000000E+00
  0.00000000E+00  0.00000000E+00  0.00000000E+00
  0.00000000E+00  0.00000000E+00  0.00000000E+00
  0.00000000E+00  0.00000000E+00  0.00000000E+00
  0.00000000E+00  0.00000000E+00  0.00000000E+00
  0.00000000E+00  0.00000000E+00  0.00000000E+00
  0.00000000E+00  0.00000000E+00  0.00000000E+00
  0.00000000E+00  0.00000000E+00  0.00000000E+00
  0.00000000E+00  0.00000000E+00  0.00000000E+00
  0.00000000E+00  0.00000000E+00  0.00000000E+00
  0.00000000E+00  0.00000000E+00  0.00000000E+00
  0.00000000E+00  0.00000000E+00  0.00000000E+00
  0.00000000E+00  0.00000000E+00  0.00000000E+00
  0.00000000E+00  0.00000000E+00  0.00000000E+00
  0.00000000E+00  0.00000000E+00  0.00000000E+00
  0.00000000E+00  0.00000000E+00  0.00000000E+00
  0.00000000E+00  0.00000000E+00  0.00000000E+00
  0.00000000E+00  0.00000000E+00  0.00000000E+00
  0.00000000E+00  0.00000000E+00  0.00000000E+00
  0.00000000E+00  0.00000000E+00  0.00000000E+00
  0.00000000E+00  0.00000000E+00  0.00000000E+00
  0.00000000E+00  0.00000000E+00  0.00000000E+00
  0.00000000E+00  0.00000000E+00  0.00000000E+00
  0.00000000E+00  0.00000000E+00  0.00000000E+00
  0.00000000E+00  0.00000000E+00  0.00000000E+00
  0.00000000E+00  0.00000000E+00  0.00000000E+00
  0.00000000E+00  0.00000000E+00  0.00000000E+00
  0.00000000E+00  0.00000000E+00  0.00000000E+00
  0.00000000E+00  0.00000000E+00  0.00000000E+00
  0.00000000E+00  0.00000000E+00  0.00000000E+00
  0.00000000E+00  0.00000000E+00  0.00000000E+00
  0.00000000E+00  0.00000000E+00  0.00000000E+00
  0.00000000E+00  0.00000000E+00  0.00000000E+00
  0.00000000E+00  0.00000000E+00  0.00000000E+00
  0.00000000E+00  0.00000000E+00  0.00000000E+00
  0.00000000E+00  0.00000000E+00  0.00000000E+00
  0.00000000E+00  0.00000000E+00  0.00000000E+00
  0.00000000E+00  0.00000000E+00  0.00000000E+00
  0.00000000E+00  0.00000000E+00  0.00000000E+00
  0.00000000E+00  0.00000000E+00  0.00000000E+00
  0.00000000E+00  0.00000000E+00  0.00000000E+00
  0.00000000E+00  0.00000000E+00  0.00000000E+00
  0.00000000E+00  0.00000000E+00  0.00000000E+00
  0.00000000E+00  0.00000000E+00  0.00000000E+00
  0.00000000E+00  0.00000000E+00  0.00000000E+00
  0.00000000E+00  0.00000000E+00  0.00000000E+00
  0.00000000E+00  0.00000000E+00  0.00000000E+00
  0.00000000E+00  0.00000000E+00  0.00000000E+00
  0.00000000E+00  0.00000000E+00  0.00000000E+00
  0.00000000E+00  0.00000000E+00  0.00000000E+00
  0.00000000E+00  0.00000000E+00  0.00000000E+00
  0.00000000E+00  0.00000000E+00  0.00000000E+00
  0.00000000E+00  0.00000000E+00  0.00000000E+00
  0.00000000E+00  0.00000000E+00  0.00000000E+00
  0.00000000E+00  0.00000000E+00  0.00000000E+00
  0.00000000E+00  0.00000000E+00  0.00000000E+00
  0.00000000E+00  0.00000000E+00  0.00000000E+00
  0.00000000E+00  0.00000000E+00  0.00000000E+00
  0.00000000E+00  0.00000000E+00  0.00000000E+00
