Hf  O  F  H                             
   1.00000000000000     
    13.7225301000000002    0.0000000000000000    0.0000000000000000
     0.0000000000000000   13.7225301000000002    0.0000000000000000
     0.0000000000000000    0.0000000000000000   32.7225301000000002
   Hf   O    F    H 
    72   144    28    28
Direct
  0.1543567879514728  0.8451694790707074  0.4058235871938980
  0.8657243478301889  0.9445001416123306  0.5049122854876573
  0.0201489062557853  0.6373580153549365  0.3828310351435227
  0.8463175392089717  0.6619364909790638  0.2978203211064229
  0.0811880830631122  0.7753314940331850  0.3014732445305399
  0.4007651337618358  0.9509851476201714  0.5403292563550065
  0.6698063237610938  0.5120297369068637  0.2771694531427243
  0.6531910976053347  0.7378335527266211  0.2550543989613555
  0.0349324111009226  0.6428332138567084  0.6743050790932321
  0.2953437541756477  0.0527176442543689  0.4067179081090456
  0.9118571225925810  0.7352322031003973  0.4665663609990083
  0.3079248482427785  0.7621869871690623  0.3096376910780867
  0.1259667508610112  0.5271121018279726  0.3067913194148363
  0.3138337505651510  0.1712924188244322  0.5148451594907996
  0.5524134908354182  0.9900601885847069  0.6772833299371279
  0.2885833885270838  0.6304393716835622  0.6559085376399771
  0.5180826896800579  0.3667145077280734  0.5343057162044296
  0.4883619386814230  0.0111343757938863  0.3146384022226281
  0.3035462446225783  0.6302513571776368  0.3966232142268155
  0.8993919559909744  0.7437414684476749  0.5832700610718893
  0.9199050448190643  0.4043023922740000  0.3097442566601112
  0.9261720568200548  0.0910177208309056  0.5741559232364039
  0.0301390687420562  0.3818696703645977  0.3991495225326216
  0.9233713910297259  0.5080662787456219  0.5907824473835473
  0.1394327638358658  0.5702122816609968  0.5825111810578506
  0.1474129177041274  0.2234324392539716  0.4448639002461712
  0.0989475743841949  0.3023114067761838  0.5526819111306813
  0.7281616287889819  0.5360294693376720  0.5244256291901970
  0.3594126381949327  0.1397748542561932  0.6258141420237453
  0.6553343280064343  0.1585628457049465  0.6069598156511300
  0.5192274631736380  0.2867673697210512  0.6623888185739061
  0.2601228097176168  0.4340812570193507  0.4787559184753570
  0.2943774497787608  0.3600405545717626  0.5999851853334951
  0.8734509799040082  0.9695891194861912  0.4024638736329223
  0.1387445746898248  0.0183482070809145  0.4977852215276436
  0.7850586001358332  0.6785602904440751  0.6878059163537111
  0.5260260122691366  0.6655135014707745  0.3524559766347024
  0.0142968924551918  0.4737809167218511  0.4950185980174489
  0.8900043581229273  0.8986125938180901  0.2911117963307588
  0.4201838913458927  0.8152159832652420  0.4438574856128458
  0.4312590069798530  0.3100420367362388  0.4455024320497311
  0.6300785366037764  0.7888873578809449  0.4956321373310099
  0.3442421195807565  0.7182695227960800  0.5430436964978533
  0.1520063486098033  0.8179767119597962  0.5794105491011651
  0.6465931599718280  0.2160273866051393  0.4103979414732671
  0.5811227962149611  0.9901831480206955  0.4152998839870002
  0.3420952485824523  0.9112508610616122  0.6422514677859111
  0.4790149409716929  0.5557465366443007  0.4753684511569507
  0.5739880157970015  0.1538170810934008  0.5061747832177287
  0.0705299252508183  0.0349579383321454  0.3538773806869204
  0.8004556490565699  0.4038416145274786  0.4321278383900750
  0.6782550179439099  0.9377446908938727  0.5695901545395273
  0.5040342841204857  0.7448973292921555  0.6685461138280591
  0.6796427796262624  0.8638009545609813  0.3436472414668668
  0.2739022229328512  0.9932528797133058  0.3027165538743571
  0.4623834784888763  0.5678409306483717  0.5966480284404788
  0.6691400994718812  0.2291700832086721  0.2900018955348234
  0.6703622910557443  0.6823260917637920  0.6006995737688400
  0.0496301007885299  0.9245920391662189  0.6531809316009707
  0.7323966923685432  0.6504066526529138  0.4087654223801462
  0.3152288599316725  0.4168563485608213  0.3554471290695241
  0.6945118842916389 -0.0080432178269879  0.2418344914612539
  0.5506524726882561  0.4452242326489045  0.3774766459264465
  0.4417669774875944  0.2152259305026129  0.3531712308343155
  0.6831339139963417  0.4509719923335812  0.6234771457559332
  0.1479987181891218  0.6709584916782615  0.4734892455674173
  0.8474634870986741  0.2794384988079779  0.6456661444998112
  0.8640352080472208  0.2269579001370317  0.3592255804855893
  0.0975205959987723  0.1817071874993164  0.6402911098303921
  0.8445363207950534  0.3132752398577411  0.5428388781206920
  0.9076259662781667  0.1867252165199427  0.4648127919131754
  0.1624355726891603  0.2495142314569415  0.3353043158478193
  0.3061701029559037  0.2613347500486684  0.3395732337186870
  0.9033433928429410  0.8014434306142132  0.5231300543602641
  0.3800103935826476  0.8885617209129035  0.3175077937621442
  0.5544508384810750  0.8769425142413968  0.4538600104532682
  0.0549166966620231  0.4587830782760448  0.5580695705860299
  0.0331996308181176  0.4941578899816623  0.3571473631576812
  0.0043658657266096  0.0477522992822528  0.6263631671607275
  0.3285538875170704  0.5755385051301283  0.4571276193903430
  0.1844839059641017  0.9485784258783965  0.4462798828790011
  0.0130069283586593  0.2892747417664717  0.3376734294085909
  0.3880974168816594  0.0309806089658186  0.2699871332521295
  0.1336299436013628  0.8892491000527313  0.5294017047916721
  0.4872857719938369  0.8804670038109756  0.6398360892980266
  0.7161870227650603  0.9563809428013661  0.3970790793660368
  0.2720911316689252  0.0267894923417280  0.5270414145418407
  0.4941673477578583  0.2834239474479539  0.7210722550075055
  0.0555765960966060  0.7958220314423559  0.6862895313392805
  0.7538401103774728  0.5297023134170895  0.4586452076089216
  0.9223805951441252  0.3559907922195724  0.5922115473094461
  0.3231921779862906  0.2180203034605749  0.5728891932227089
  0.8236860742490293  0.9851359122013505  0.5651712372428429
  0.2569328565418932  0.7552492783174017  0.4420204712693046
  0.0267796633720662  0.9312195167214405  0.3096273414725455
  0.7235882064925790  0.9023645353800012  0.5078844683710482
  0.4188461150576627  0.5428942949430822  0.3728013409521001
  0.9507519748752903  0.7727085988127456  0.2713881360522175
  0.8015794691951024  0.2219424933562875  0.4171522462879636
  0.0566827898443830  0.7696732761668610  0.4446607812709595
  0.1538069920836398  0.6859480953509566  0.6223352485202581
  0.8775465955660107  0.3791841034286786  0.3735890465500921
  0.5135600504323028  0.7021016435581691  0.4707151915485948
  0.8066776302025562  0.6107228070006506  0.5739467296239775
  0.1627901219090740  0.1985636446282674  0.5167294872226555
  0.5328130971019625  0.1662036670605900  0.3065325418707701
  0.0254701175268764  0.4541750664906718  0.2749207526443074
  0.6631089451732106  0.6716037874165560  0.5313481463591091
  0.5249177648698417  0.2944377393183860  0.3923240229190629
  0.0002607993974521  0.6418846814234723  0.5684888644655652
  0.9844324570558174  0.3200664421892305  0.5114169705112558
  0.4460850620217325  0.2482837629856375  0.5072620225819927
  0.4056741888102562  0.4244811437767113  0.4966218558772510
  0.8959453112478324  0.6568841510863613  0.4133107726982196
  0.4279955026652748  0.7234115470906661  0.3956798999852907
  0.5974090226550298  0.1502124346594422  0.6747367909250572
  0.8215096999575683  0.5087760333744353  0.2916888844629810
  0.8890013574106282  0.8726310766956205  0.4479688438905778
  0.6128701441200567  0.2606058665631268  0.5489096241984294
  0.5819163918658808  0.2708804442281703  0.4636091884167423
  0.8083636141580445  0.2067324009920024  0.5896330173463395
  0.2034943590412653  0.8638166778914073  0.2850492682231682
  0.3691564995282725  0.0697182706371827  0.3478251173824868
  0.7130355191808045  0.5852368985874892  0.6459421134244947
  0.3286561657322030  0.6431827728259104  0.5943075973371368
  0.5912800661832275  0.5368598483200172  0.3260654079816632
  0.8969929135107332  0.9104120446425814  0.6885821463146820
  0.1980180856654158  0.6976572184182486  0.5371271887423368
  0.4523985620568932  0.0677349253725308  0.5103178833209466
  0.1172000780930716  0.3823870392575454  0.4589691214087571
  0.2072125280414197  0.9590332965626365  0.3645467653452730
  0.6565993727391062  0.7468910628191909  0.6604511966915946
  0.6489152951231277  0.0790313920211397  0.5502457317847994
  0.2370101889609293  0.5474602123541942  0.3517233679902941
  0.4163427010664100  0.6738736531470821  0.3112029479971590
  0.4388293113490456  0.4163764899058685  0.5823694284800917
  0.0238791106464563  0.9419854186745729  0.3963580229674182
  0.9901342102148490  0.0129207391687948  0.5277142775361048
  0.2424299031286685  0.4960073483458813  0.6168766959842651
  0.6325597295878893  0.9688801933516352  0.2955066611701165
  0.8375992981792936  0.2836631607697055  0.3002565105031621
  0.0037277816399955  0.6244686079890687  0.4852291200574415
  0.9895966799676577  0.2526070975255367  0.4194943076859804
  0.5252784315595136  0.7040819953783237  0.6034183293697882
  0.4494407536097843  0.3739049664592840  0.3370976232974777
  0.2445741525109086  0.1122379886404724  0.4595267491599076
  0.8732086760296484  0.1697134243210506  0.5233492237957611
  0.1603499359412767  0.3024951729765787  0.6118640266354096
  0.0367363813808323  0.1883243763775855  0.5798917531063401
  0.8996612709534328  0.6774123326242659  0.6413807580485981
  0.6568817729705895  0.8608599617084355  0.2200099927355852
  0.7529518334421987  0.8038213038165953  0.5876245272942880
  0.5094199135065950  0.1879160071026820  0.6136487334291072
  0.7520583132154922  0.7317736649952339  0.4603977338418173
  0.3160206028636539  0.8378834356477354  0.5791780229720647
  0.4118309565371554  0.0408158856887647  0.6686552544963765
  0.3812591851633064  0.1835146775707343  0.4122419471178646
  0.6367212620633114  0.0966953249266442  0.4538525508205021
  0.1597864473557558  0.5353400504332166  0.5005378555888144
  0.5021611789836975  0.4454840007639581  0.4348961612656977
  0.1949628225762859  0.3928516219415144  0.3125343078824131
  0.5467336592624535  0.9229703209446322  0.3610799374111884
  0.7924242184182136  0.6482861403917444  0.3507223334458772
  0.6077681993720614  0.5376052598492793  0.5844132220732149
  0.0071872078917053  0.6375143702198480  0.3178367852440049
  0.7377611642161870  0.4159441536986976  0.5653743529033307
  0.2492215013360267  0.7541846942174322  0.3646864447313016
  0.8803035189384120  0.4814403525350629  0.5265242300588429
  0.8573088192337822  0.0498117695109950  0.4555917537690165
  0.3822407571620696  0.0102771442905176  0.5943297023889236
  0.6496727537636187  0.3657711384416092  0.2742103225402948
  0.7173968849429184  0.1988722616831561  0.3486254553391168
  0.5527726552508392  0.1137143477392667  0.3826322422706037
  0.0089329705584004  0.8380106504976244  0.6025865086641310
  0.3708676852184630  0.2880622431771340  0.6466629631455892
  0.3958851216526649  0.9536282559200683  0.4229223688417043
  0.6046967927306671  0.5812534851886654  0.4003178543334351
  0.6790149645546134  0.1371121580704617  0.2440767852515682
  0.6480754618775172  0.7557888256361964  0.3829748862895016
  0.8353061637175447  0.9010918177604245  0.3477352478135095
  0.9444124910655375  0.4585874551091975  0.4395568757024693
  0.8169440026596447  0.8470941844701562  0.6753900724930543
  0.5908772670457433  0.4796977221866331  0.5078260321814831
  0.0393342033366441  0.5342960480593620  0.6296393129357284
  0.4347589653349379  0.5981714832327520  0.6557647956129655
  0.6079076111907361  0.6051187062569658  0.2394309965496536
  0.5526063878160837  0.4371576765720277  0.6584630446098545
  0.5899133137107337  0.7609204960736624  0.3088609490338016
  0.7695186134144002  0.7996786282060481  0.2913231886278637
  0.6827477904792363  0.3790303851879804  0.3969036220165587
  0.8056585219562505  0.3202435738158933  0.4811661321698690
  0.3223577219531760  0.4018211138099282  0.4164766610962040
  0.9273479832855951  0.6889154464778788  0.7176836200518962
  0.5145666141592610  0.8640477476772015  0.7107996079079917
  0.8333031793105226  0.9885378870183463  0.2517943479224334
  0.1555907272960261  0.1394504897402870  0.3875251785423392
  0.2226973052504095  0.1050980973723750  0.6367787756314268
  0.5546874209531522  0.8747704142427970  0.5429771988908606
  0.1634819640882232  0.3211099322639783  0.3897660467473725
  0.0475467120842161  0.1224157551035198  0.4653387315962753
  0.2337744304307990  0.3830639163121459  0.5415660946652462
  0.9693950098259730  0.2324015274107255  0.6612694280728125
  0.0624047895393093  0.7707932390642911  0.3626331588690020
  0.9279340895999439  0.0897333670630310  0.3635232223734858
  0.6354341327534655  0.0093213881083719  0.6214412312803108
  0.4349024732407180  0.6031651276565445  0.5340380586214136
  0.8327660680551662  0.4425115916799672  0.6436437123294688
  0.1426867102623507  0.6054051187227161  0.4165385703932703
  0.3754236405295487  0.8306017810035360  0.5030576142992679
  0.1771603383640727  0.6433328530993977  0.6987032371418758
  0.3460554442971431  0.7664513283001902  0.6630479293275883
  0.1822866261553309  0.6684426923463145  0.2876353010055602
  0.1621822120118270  0.1053906331492869  0.3089639483138129
  0.6658104767610209  0.3030114689548603  0.6333596261202177
  0.1818796890987155  0.9044512052639487  0.6283638064622238
  0.2856522048978403  0.2846868123209435  0.4711863178112088
  0.5003158645518561  0.6793890424444851  0.7236476901705040
  0.1684155472278634  0.4288248990472838  0.7255520281479628
  0.8610653137242746  0.6676913782299683  0.7954964287659607
  0.3741643458533648  0.3944781225760708  0.7638949110709636
  0.9216596204289086  0.1637271955178508  0.7586987503675727
  0.2777439867724176  0.9266320103641567  0.7011871986598361
  0.2320697992946111  0.6150426653980149  0.7736679866602358
  0.4051935802841374  0.9639247956254607  0.7877939969012028
  0.2166044544925129  0.1685885183556894  0.7577762991455106
  0.4075020410120492  0.6334370162085914  0.7837245523278724
  0.8419272792756588  0.9874217482569485  0.7568545017322899
  0.5968687063867476  0.4974526723510448  0.7318099681863710
  0.6832900547365741  0.0023129278819619  0.7825983166307438
  0.7096965622010842  0.3772772155451061  0.7608327497157091
  0.3046465199398391  0.5049467844975546  0.6968536435830909
  0.8110925759573758  0.5416510570812311  0.7075112583608231
  0.1959698515313533  0.9035980931886278  0.8101750381379889
  0.0748735779816073  0.0013961933716098  0.7047711015027721
  0.2729425817266277  0.8225918852235287  0.7564151151807709
  0.1481680577156756  0.2243352414007412  0.6954930114735127
  0.3885542324522390  0.1468118665246657  0.7677327897528760
  0.5571969926198675  0.0415992772812847  0.7374792301032393
  0.6921821049798847  0.9592776398919316  0.6957794726233398
  0.0702828975030153  0.9949639128607922  0.7784239511412606
  0.7337378234100842  0.7120113445274933  0.7421259090175192
  0.0291940999415121  0.5260630250804448  0.7121815146066530
  0.7933609146801056  0.3120292525769367  0.7014713024671332
  0.7732871004462618  0.1460695981527512  0.6550942101299777
  0.5527723514774623  0.4718634953638728  0.6855135676929146
  0.1934294197669856  0.6325426527660070  0.7284160540856947
  0.9238196188705246  0.6643144846185478  0.7460672775236245
  0.4226653988151586  0.3607648447841016  0.7480166326692387
  0.8937486224542716  0.1005995937895744  0.7614994844404858
  0.2786218316604735  0.8763480832935114  0.7274778400071805
  0.3035889644745839  0.6200456382091631  0.7780434212975224
  0.5214875804938248  0.8577446596698990  0.7403152274177832
  0.3172578249297220  0.1603211064553778  0.7633210657275812
  0.4478711705999338  0.6488509599539054  0.7593042606193460
  0.8727203117414756  0.9411748133473217  0.7150595933446483
  0.6414060573906355  0.4501086344158448  0.7449957129169276
  0.6495366229154759  0.1566893573927844  0.6950025822547770
  0.4775865397345929  0.2285511137401070  0.7391211312819135
  0.2446693327625628  0.4695744047968262  0.7115932996809069
  0.8304363576784080  0.4779393414967050  0.6713670657892369
  0.1423534304704532  0.9450624723235828  0.7971951651019960
  0.0752618067702633  0.0032952267200936  0.7480904913726092
  0.2428954188105812  0.8593543324655774  0.7820999277477061
  0.1880852414603188  0.1953929171664767  0.7313999099100974
  0.4049739183283255  0.0320119516959270  0.7808593970462934
  0.6261502856373923  0.0198437693995897  0.7622294800451189
  0.7568168368017708  0.8928111193435811  0.6813613367605029
  0.0092509809637544  0.7975261815582229  0.7093268798904835
  0.8020187252991274  0.6854188328835875  0.7812792839590956
  0.1059646185942160  0.4686710327517360  0.7204701913983508
  0.7502139513872079  0.3497982360037403  0.7385384990466148
  0.7693357874132388 -0.0078046020987118  0.7670378182348212
 
  0.00000000E+00  0.00000000E+00  0.00000000E+00
  0.00000000E+00  0.00000000E+00  0.00000000E+00
  0.00000000E+00  0.00000000E+00  0.00000000E+00
  0.00000000E+00  0.00000000E+00  0.00000000E+00
  0.00000000E+00  0.00000000E+00  0.00000000E+00
  0.00000000E+00  0.00000000E+00  0.00000000E+00
  0.00000000E+00  0.00000000E+00  0.00000000E+00
  0.00000000E+00  0.00000000E+00  0.00000000E+00
  0.00000000E+00  0.00000000E+00  0.00000000E+00
  0.00000000E+00  0.00000000E+00  0.00000000E+00
  0.00000000E+00  0.00000000E+00  0.00000000E+00
  0.00000000E+00  0.00000000E+00  0.00000000E+00
  0.00000000E+00  0.00000000E+00  0.00000000E+00
  0.00000000E+00  0.00000000E+00  0.00000000E+00
  0.00000000E+00  0.00000000E+00  0.00000000E+00
  0.00000000E+00  0.00000000E+00  0.00000000E+00
  0.00000000E+00  0.00000000E+00  0.00000000E+00
  0.00000000E+00  0.00000000E+00  0.00000000E+00
  0.00000000E+00  0.00000000E+00  0.00000000E+00
  0.00000000E+00  0.00000000E+00  0.00000000E+00
  0.00000000E+00  0.00000000E+00  0.00000000E+00
  0.00000000E+00  0.00000000E+00  0.00000000E+00
  0.00000000E+00  0.00000000E+00  0.00000000E+00
  0.00000000E+00  0.00000000E+00  0.00000000E+00
  0.00000000E+00  0.00000000E+00  0.00000000E+00
  0.00000000E+00  0.00000000E+00  0.00000000E+00
  0.00000000E+00  0.00000000E+00  0.00000000E+00
  0.00000000E+00  0.00000000E+00  0.00000000E+00
  0.00000000E+00  0.00000000E+00  0.00000000E+00
  0.00000000E+00  0.00000000E+00  0.00000000E+00
  0.00000000E+00  0.00000000E+00  0.00000000E+00
  0.00000000E+00  0.00000000E+00  0.00000000E+00
  0.00000000E+00  0.00000000E+00  0.00000000E+00
  0.00000000E+00  0.00000000E+00  0.00000000E+00
  0.00000000E+00  0.00000000E+00  0.00000000E+00
  0.00000000E+00  0.00000000E+00  0.00000000E+00
  0.00000000E+00  0.00000000E+00  0.00000000E+00
  0.00000000E+00  0.00000000E+00  0.00000000E+00
  0.00000000E+00  0.00000000E+00  0.00000000E+00
  0.00000000E+00  0.00000000E+00  0.00000000E+00
  0.00000000E+00  0.00000000E+00  0.00000000E+00
  0.00000000E+00  0.00000000E+00  0.00000000E+00
  0.00000000E+00  0.00000000E+00  0.00000000E+00
  0.00000000E+00  0.00000000E+00  0.00000000E+00
  0.00000000E+00  0.00000000E+00  0.00000000E+00
  0.00000000E+00  0.00000000E+00  0.00000000E+00
  0.00000000E+00  0.00000000E+00  0.00000000E+00
  0.00000000E+00  0.00000000E+00  0.00000000E+00
  0.00000000E+00  0.00000000E+00  0.00000000E+00
  0.00000000E+00  0.00000000E+00  0.00000000E+00
  0.00000000E+00  0.00000000E+00  0.00000000E+00
  0.00000000E+00  0.00000000E+00  0.00000000E+00
  0.00000000E+00  0.00000000E+00  0.00000000E+00
  0.00000000E+00  0.00000000E+00  0.00000000E+00
  0.00000000E+00  0.00000000E+00  0.00000000E+00
  0.00000000E+00  0.00000000E+00  0.00000000E+00
  0.00000000E+00  0.00000000E+00  0.00000000E+00
  0.00000000E+00  0.00000000E+00  0.00000000E+00
  0.00000000E+00  0.00000000E+00  0.00000000E+00
  0.00000000E+00  0.00000000E+00  0.00000000E+00
  0.00000000E+00  0.00000000E+00  0.00000000E+00
  0.00000000E+00  0.00000000E+00  0.00000000E+00
  0.00000000E+00  0.00000000E+00  0.00000000E+00
  0.00000000E+00  0.00000000E+00  0.00000000E+00
  0.00000000E+00  0.00000000E+00  0.00000000E+00
  0.00000000E+00  0.00000000E+00  0.00000000E+00
  0.00000000E+00  0.00000000E+00  0.00000000E+00
  0.00000000E+00  0.00000000E+00  0.00000000E+00
  0.00000000E+00  0.00000000E+00  0.00000000E+00
  0.00000000E+00  0.00000000E+00  0.00000000E+00
  0.00000000E+00  0.00000000E+00  0.00000000E+00
  0.00000000E+00  0.00000000E+00  0.00000000E+00
  0.00000000E+00  0.00000000E+00  0.00000000E+00
  0.00000000E+00  0.00000000E+00  0.00000000E+00
  0.00000000E+00  0.00000000E+00  0.00000000E+00
  0.00000000E+00  0.00000000E+00  0.00000000E+00
  0.00000000E+00  0.00000000E+00  0.00000000E+00
  0.00000000E+00  0.00000000E+00  0.00000000E+00
  0.00000000E+00  0.00000000E+00  0.00000000E+00
  0.00000000E+00  0.00000000E+00  0.00000000E+00
  0.00000000E+00  0.00000000E+00  0.00000000E+00
  0.00000000E+00  0.00000000E+00  0.00000000E+00
  0.00000000E+00  0.00000000E+00  0.00000000E+00
  0.00000000E+00  0.00000000E+00  0.00000000E+00
  0.00000000E+00  0.00000000E+00  0.00000000E+00
  0.00000000E+00  0.00000000E+00  0.00000000E+00
  0.00000000E+00  0.00000000E+00  0.00000000E+00
  0.00000000E+00  0.00000000E+00  0.00000000E+00
  0.00000000E+00  0.00000000E+00  0.00000000E+00
  0.00000000E+00  0.00000000E+00  0.00000000E+00
  0.00000000E+00  0.00000000E+00  0.00000000E+00
  0.00000000E+00  0.00000000E+00  0.00000000E+00
  0.00000000E+00  0.00000000E+00  0.00000000E+00
  0.00000000E+00  0.00000000E+00  0.00000000E+00
  0.00000000E+00  0.00000000E+00  0.00000000E+00
  0.00000000E+00  0.00000000E+00  0.00000000E+00
  0.00000000E+00  0.00000000E+00  0.00000000E+00
  0.00000000E+00  0.00000000E+00  0.00000000E+00
  0.00000000E+00  0.00000000E+00  0.00000000E+00
  0.00000000E+00  0.00000000E+00  0.00000000E+00
  0.00000000E+00  0.00000000E+00  0.00000000E+00
  0.00000000E+00  0.00000000E+00  0.00000000E+00
  0.00000000E+00  0.00000000E+00  0.00000000E+00
  0.00000000E+00  0.00000000E+00  0.00000000E+00
  0.00000000E+00  0.00000000E+00  0.00000000E+00
  0.00000000E+00  0.00000000E+00  0.00000000E+00
  0.00000000E+00  0.00000000E+00  0.00000000E+00
  0.00000000E+00  0.00000000E+00  0.00000000E+00
  0.00000000E+00  0.00000000E+00  0.00000000E+00
  0.00000000E+00  0.00000000E+00  0.00000000E+00
  0.00000000E+00  0.00000000E+00  0.00000000E+00
  0.00000000E+00  0.00000000E+00  0.00000000E+00
  0.00000000E+00  0.00000000E+00  0.00000000E+00
  0.00000000E+00  0.00000000E+00  0.00000000E+00
  0.00000000E+00  0.00000000E+00  0.00000000E+00
  0.00000000E+00  0.00000000E+00  0.00000000E+00
  0.00000000E+00  0.00000000E+00  0.00000000E+00
  0.00000000E+00  0.00000000E+00  0.00000000E+00
  0.00000000E+00  0.00000000E+00  0.00000000E+00
  0.00000000E+00  0.00000000E+00  0.00000000E+00
  0.00000000E+00  0.00000000E+00  0.00000000E+00
  0.00000000E+00  0.00000000E+00  0.00000000E+00
  0.00000000E+00  0.00000000E+00  0.00000000E+00
  0.00000000E+00  0.00000000E+00  0.00000000E+00
  0.00000000E+00  0.00000000E+00  0.00000000E+00
  0.00000000E+00  0.00000000E+00  0.00000000E+00
  0.00000000E+00  0.00000000E+00  0.00000000E+00
  0.00000000E+00  0.00000000E+00  0.00000000E+00
  0.00000000E+00  0.00000000E+00  0.00000000E+00
  0.00000000E+00  0.00000000E+00  0.00000000E+00
  0.00000000E+00  0.00000000E+00  0.00000000E+00
  0.00000000E+00  0.00000000E+00  0.00000000E+00
  0.00000000E+00  0.00000000E+00  0.00000000E+00
  0.00000000E+00  0.00000000E+00  0.00000000E+00
  0.00000000E+00  0.00000000E+00  0.00000000E+00
  0.00000000E+00  0.00000000E+00  0.00000000E+00
  0.00000000E+00  0.00000000E+00  0.00000000E+00
  0.00000000E+00  0.00000000E+00  0.00000000E+00
  0.00000000E+00  0.00000000E+00  0.00000000E+00
  0.00000000E+00  0.00000000E+00  0.00000000E+00
  0.00000000E+00  0.00000000E+00  0.00000000E+00
  0.00000000E+00  0.00000000E+00  0.00000000E+00
  0.00000000E+00  0.00000000E+00  0.00000000E+00
  0.00000000E+00  0.00000000E+00  0.00000000E+00
  0.00000000E+00  0.00000000E+00  0.00000000E+00
  0.00000000E+00  0.00000000E+00  0.00000000E+00
  0.00000000E+00  0.00000000E+00  0.00000000E+00
  0.00000000E+00  0.00000000E+00  0.00000000E+00
  0.00000000E+00  0.00000000E+00  0.00000000E+00
  0.00000000E+00  0.00000000E+00  0.00000000E+00
  0.00000000E+00  0.00000000E+00  0.00000000E+00
  0.00000000E+00  0.00000000E+00  0.00000000E+00
  0.00000000E+00  0.00000000E+00  0.00000000E+00
  0.00000000E+00  0.00000000E+00  0.00000000E+00
  0.00000000E+00  0.00000000E+00  0.00000000E+00
  0.00000000E+00  0.00000000E+00  0.00000000E+00
  0.00000000E+00  0.00000000E+00  0.00000000E+00
  0.00000000E+00  0.00000000E+00  0.00000000E+00
  0.00000000E+00  0.00000000E+00  0.00000000E+00
  0.00000000E+00  0.00000000E+00  0.00000000E+00
  0.00000000E+00  0.00000000E+00  0.00000000E+00
  0.00000000E+00  0.00000000E+00  0.00000000E+00
  0.00000000E+00  0.00000000E+00  0.00000000E+00
  0.00000000E+00  0.00000000E+00  0.00000000E+00
  0.00000000E+00  0.00000000E+00  0.00000000E+00
  0.00000000E+00  0.00000000E+00  0.00000000E+00
  0.00000000E+00  0.00000000E+00  0.00000000E+00
  0.00000000E+00  0.00000000E+00  0.00000000E+00
  0.00000000E+00  0.00000000E+00  0.00000000E+00
  0.00000000E+00  0.00000000E+00  0.00000000E+00
  0.00000000E+00  0.00000000E+00  0.00000000E+00
  0.00000000E+00  0.00000000E+00  0.00000000E+00
  0.00000000E+00  0.00000000E+00  0.00000000E+00
  0.00000000E+00  0.00000000E+00  0.00000000E+00
  0.00000000E+00  0.00000000E+00  0.00000000E+00
  0.00000000E+00  0.00000000E+00  0.00000000E+00
  0.00000000E+00  0.00000000E+00  0.00000000E+00
  0.00000000E+00  0.00000000E+00  0.00000000E+00
  0.00000000E+00  0.00000000E+00  0.00000000E+00
  0.00000000E+00  0.00000000E+00  0.00000000E+00
  0.00000000E+00  0.00000000E+00  0.00000000E+00
  0.00000000E+00  0.00000000E+00  0.00000000E+00
  0.00000000E+00  0.00000000E+00  0.00000000E+00
  0.00000000E+00  0.00000000E+00  0.00000000E+00
  0.00000000E+00  0.00000000E+00  0.00000000E+00
  0.00000000E+00  0.00000000E+00  0.00000000E+00
  0.00000000E+00  0.00000000E+00  0.00000000E+00
  0.00000000E+00  0.00000000E+00  0.00000000E+00
  0.00000000E+00  0.00000000E+00  0.00000000E+00
  0.00000000E+00  0.00000000E+00  0.00000000E+00
  0.00000000E+00  0.00000000E+00  0.00000000E+00
  0.00000000E+00  0.00000000E+00  0.00000000E+00
  0.00000000E+00  0.00000000E+00  0.00000000E+00
  0.00000000E+00  0.00000000E+00  0.00000000E+00
  0.00000000E+00  0.00000000E+00  0.00000000E+00
  0.00000000E+00  0.00000000E+00  0.00000000E+00
  0.00000000E+00  0.00000000E+00  0.00000000E+00
  0.00000000E+00  0.00000000E+00  0.00000000E+00
  0.00000000E+00  0.00000000E+00  0.00000000E+00
  0.00000000E+00  0.00000000E+00  0.00000000E+00
  0.00000000E+00  0.00000000E+00  0.00000000E+00
  0.00000000E+00  0.00000000E+00  0.00000000E+00
  0.00000000E+00  0.00000000E+00  0.00000000E+00
  0.00000000E+00  0.00000000E+00  0.00000000E+00
  0.00000000E+00  0.00000000E+00  0.00000000E+00
  0.00000000E+00  0.00000000E+00  0.00000000E+00
  0.00000000E+00  0.00000000E+00  0.00000000E+00
  0.00000000E+00  0.00000000E+00  0.00000000E+00
  0.00000000E+00  0.00000000E+00  0.00000000E+00
  0.00000000E+00  0.00000000E+00  0.00000000E+00
  0.00000000E+00  0.00000000E+00  0.00000000E+00
  0.00000000E+00  0.00000000E+00  0.00000000E+00
  0.00000000E+00  0.00000000E+00  0.00000000E+00
  0.00000000E+00  0.00000000E+00  0.00000000E+00
  0.00000000E+00  0.00000000E+00  0.00000000E+00
  0.00000000E+00  0.00000000E+00  0.00000000E+00
  0.00000000E+00  0.00000000E+00  0.00000000E+00
  0.00000000E+00  0.00000000E+00  0.00000000E+00
  0.00000000E+00  0.00000000E+00  0.00000000E+00
  0.00000000E+00  0.00000000E+00  0.00000000E+00
  0.00000000E+00  0.00000000E+00  0.00000000E+00
  0.00000000E+00  0.00000000E+00  0.00000000E+00
  0.00000000E+00  0.00000000E+00  0.00000000E+00
  0.00000000E+00  0.00000000E+00  0.00000000E+00
  0.00000000E+00  0.00000000E+00  0.00000000E+00
  0.00000000E+00  0.00000000E+00  0.00000000E+00
  0.00000000E+00  0.00000000E+00  0.00000000E+00
  0.00000000E+00  0.00000000E+00  0.00000000E+00
  0.00000000E+00  0.00000000E+00  0.00000000E+00
  0.00000000E+00  0.00000000E+00  0.00000000E+00
  0.00000000E+00  0.00000000E+00  0.00000000E+00
  0.00000000E+00  0.00000000E+00  0.00000000E+00
  0.00000000E+00  0.00000000E+00  0.00000000E+00
  0.00000000E+00  0.00000000E+00  0.00000000E+00
  0.00000000E+00  0.00000000E+00  0.00000000E+00
  0.00000000E+00  0.00000000E+00  0.00000000E+00
  0.00000000E+00  0.00000000E+00  0.00000000E+00
  0.00000000E+00  0.00000000E+00  0.00000000E+00
  0.00000000E+00  0.00000000E+00  0.00000000E+00
  0.00000000E+00  0.00000000E+00  0.00000000E+00
  0.00000000E+00  0.00000000E+00  0.00000000E+00
  0.00000000E+00  0.00000000E+00  0.00000000E+00
  0.00000000E+00  0.00000000E+00  0.00000000E+00
  0.00000000E+00  0.00000000E+00  0.00000000E+00
  0.00000000E+00  0.00000000E+00  0.00000000E+00
  0.00000000E+00  0.00000000E+00  0.00000000E+00
  0.00000000E+00  0.00000000E+00  0.00000000E+00
  0.00000000E+00  0.00000000E+00  0.00000000E+00
  0.00000000E+00  0.00000000E+00  0.00000000E+00
  0.00000000E+00  0.00000000E+00  0.00000000E+00
  0.00000000E+00  0.00000000E+00  0.00000000E+00
  0.00000000E+00  0.00000000E+00  0.00000000E+00
  0.00000000E+00  0.00000000E+00  0.00000000E+00
  0.00000000E+00  0.00000000E+00  0.00000000E+00
  0.00000000E+00  0.00000000E+00  0.00000000E+00
  0.00000000E+00  0.00000000E+00  0.00000000E+00
  0.00000000E+00  0.00000000E+00  0.00000000E+00
  0.00000000E+00  0.00000000E+00  0.00000000E+00
  0.00000000E+00  0.00000000E+00  0.00000000E+00
  0.00000000E+00  0.00000000E+00  0.00000000E+00
  0.00000000E+00  0.00000000E+00  0.00000000E+00
  0.00000000E+00  0.00000000E+00  0.00000000E+00
  0.00000000E+00  0.00000000E+00  0.00000000E+00
  0.00000000E+00  0.00000000E+00  0.00000000E+00
  0.00000000E+00  0.00000000E+00  0.00000000E+00
  0.00000000E+00  0.00000000E+00  0.00000000E+00
  0.00000000E+00  0.00000000E+00  0.00000000E+00