Hf  O  F  H                             
   1.00000000000000     
    13.7225301000000002    0.0000000000000000    0.0000000000000000
     0.0000000000000000   13.7225301000000002    0.0000000000000000
     0.0000000000000000    0.0000000000000000   32.7225301000000002
   Hf   O    F    H 
    72   144     2     2
Direct
  0.1333813703952182  0.8683901367061744  0.4169582108318642
  0.8677757127092683  0.9478595078265051  0.5061164647169600
  0.0208276330849563  0.6251036606701096  0.3961409844295119
  0.8724231348220092  0.6431120698197621  0.3045088714501005
  0.0738001365535620  0.7881394811717415  0.3169561030109089
  0.4075371037408984  0.9423655659959976  0.5523837199569731
  0.6286123760282216  0.5169544570821083  0.2779759593518776
  0.6797337147123556  0.7520041350951464  0.2793303898873797
  0.0434387311267783  0.6537406771398514  0.6675087357929782
  0.2810322303425893  0.0583702686238312  0.4138794519946531
  0.9285931615201678  0.7404772469178301  0.4695796881509648
  0.2852802534892803  0.7631628581139311  0.2965778887562273
  0.0995781921417300  0.5294039778956998  0.3107311757004717
  0.3424957369761243  0.1652042672792981  0.5248272120982365
  0.5252198469803878  0.9809098765777102  0.6669738129955339
  0.2744556652151758  0.6396287781367058  0.6539716211662023
  0.5537451947772670  0.3659250837646869  0.5380067342622223
  0.4660914548353781  0.9906625463199858  0.3226538554971651
  0.2833507736259454  0.6600893815743866  0.3878194156182862
  0.8973878591208176  0.7181135129718428  0.5688703701024114
  0.8350258697404903  0.4313221685311189  0.3156058347498805
  0.9131015927233773  0.1024031985123314  0.5767438427111921
  0.0099910641907424  0.3553078211863703  0.3909529119890512
  0.9169296013600651  0.5007445063584621  0.5983422168765052
  0.1427910096379787  0.5352777146949905  0.5849487239516959
  0.1795486103958483  0.2513960813150723  0.4465073478018357
  0.1150052781602737  0.2889879426209225  0.5441572204706637
  0.7479918507358874  0.5548483512825821  0.5156402058667354
  0.3450134753646784  0.1419361293441601  0.6370240645360039
  0.6577893063475161  0.1526586629491401  0.6121424595813987
  0.5272240211462172  0.3055649521026229  0.6768613788908679
  0.2659285647162594  0.4512998524316585  0.4965518120214366
  0.3118092261428755  0.3580517457141705  0.6079172155262497
  0.8568383228569432  0.9796628542936616  0.4097009668216900
  0.1587859542273861  0.0443002544325802  0.5088222903342291
  0.7928384922569320  0.7105787193747704  0.6719108710778459
  0.4913874999680486  0.6458121081125641  0.3485710338944550
  0.0125262319123470  0.4739844781729562  0.5017823555772435
  0.8799818109252009  0.9233017835443590  0.3037743455993432
  0.4150025768275644  0.8187671689635813  0.4435112409769500
  0.4245399546436047  0.3331294890723932  0.4478386588284674
  0.6071794159002977  0.8073041368222201  0.5010775230766912
  0.3455120994132486  0.7054244191994778  0.5387607933230980
  0.1466647936698061  0.8225850672028905  0.5779400128642969
  0.6771449861026954  0.2320625706167500  0.4312477345519516
  0.5584603797261881  0.0040160398772021  0.4154251410338885
  0.3066748619514896  0.9132045886625240  0.6390454685610915
  0.4939209803516729  0.5592478951555444  0.4809715524810442
  0.5892067888876349  0.1485388639629840  0.5167201177368916
  0.0623222708836749  0.0580629026069624  0.3633305095171303
  0.8087452987562139  0.4158895150566009  0.4337276363866843
  0.6977349043658226  0.9280278264394098  0.5770974381135748
  0.4925361153853215  0.7611370376041700  0.6560788326289646
  0.6806726423370529  0.8446755348486134  0.3674675172370948
  0.2546733588655094  0.9994546926894956  0.3094418128039896
  0.4549795923188598  0.5597797538616232  0.6008246842194208
  0.6507874221580513  0.2870889910990851  0.2898582642479970
  0.6584497216779710  0.6816982887342643  0.5945957620520314
  0.9986127684820653  0.8990370375502643  0.6471660919183965
  0.7465141719108239  0.6334109157129598  0.3946773581910055
  0.2927727962829755  0.4251523867431179  0.3715025761537464
  0.6924255362472881  0.0420757873248401  0.2679308620580750
  0.5668200741520754  0.4267607763875785  0.3741347993442988
  0.4305281634554083  0.2185085295357063  0.3634888672854835
  0.6770805520128265  0.4619224089849258  0.6276255183972269
  0.1635879620149856  0.6701094618554626  0.4772118145896055
  0.8332879770469872  0.2966343092194388  0.6494826339726318
  0.8514966455544550  0.1960835001916130  0.3418574375534253
  0.0912049830292651  0.1789964824713018  0.6314618891121475
  0.8180212872189723  0.3329728747930516  0.5378784145184610
  0.9381482112830645  0.1884914784812101  0.4800007312410449
  0.1612324306562388  0.2574797067297271  0.3302657175834190
  0.3037154306578327  0.2895482448033673  0.3352736879917281
  0.9336898965545214  0.8240381362383687  0.5228266674014090
  0.3603080406308111  0.8837650617653140  0.3187297640873616
  0.5488022657738835  0.8893631428340406  0.4554978721457926
  0.0528359007916017  0.4266346620954291  0.5621741163384281
  0.0414982656759959  0.4934229417806755  0.3678679775739459
  0.0050359800513373  0.0519509582215855  0.6241859076015469
  0.3104159609225251  0.6086726307570134  0.4849735288938099
  0.1857649661160734  0.9730041590884154  0.4531616725982325
  0.0117870644613295  0.2336477951441653  0.3459981259750444
  0.3689107722543574  0.0477508252895929  0.2808111054886979
  0.1247944029221634  0.9308137958768077  0.5426183300458189
  0.4655521975876481  0.8935824466765652  0.6238431918077456
  0.7029993782851779  0.9676016663631025  0.4048109062585868
  0.3026258806936339  0.0118681340025532  0.5213481464714754
  0.5322936465470002  0.3136622459751948  0.7306758085080403
  0.0481670068498838  0.7928287000175804  0.6805893170447721
  0.7560743781222481  0.5573925400418253  0.4461258575448437
  0.8863282360247352  0.3470857032691334  0.5925535694527347
  0.3578955348548702  0.2234604643867900  0.5823426449655026
  0.8381330753382554  0.9766303185614943  0.5682448374489770
  0.2613630436339046  0.7729558302708837  0.4366010491806158
  0.0204260846172729  0.9405230052974990  0.3222491948934583
  0.7257811339212733  0.8960950062946106  0.5115876209632879
  0.3857639116599992  0.5548210207075637  0.3791134273700281
  0.9375113538996533  0.7840971973113006  0.2887955775194822
  0.8218572115222619  0.2666224436701124  0.4486768327135311
  0.0727840836366886  0.7867998240343155  0.4627553125388001
  0.1495622143551116  0.6751000958022648  0.6169361227011527
  0.8703364828868719  0.3494893445128017  0.3683879639841906
  0.5079109123218594  0.7057993109994547  0.4668220926889389
  0.7881484450747169  0.5915973234111075  0.5760963877215045
  0.2021548238103888  0.1591996671860574  0.5478356329406077
  0.5440114153598491  0.2876241396687932  0.3303185014810940
  0.9530283262495242  0.5044575345457527  0.2905788374477100
  0.6543965148607550  0.6818835463489241  0.5266031864075199
  0.5335082470566153  0.2591471024485614  0.4148656448001278
  0.0026533422999062  0.6096691432706964  0.5615097195707979
  0.9625121553873045  0.3206256328314595  0.5102443061231516
  0.4704978341762741  0.2514598594116114  0.5030650307038014
  0.4183966461055422  0.4330223200660581  0.4991160666701803
  0.8907551072200007  0.6824874225852250  0.4129716354792102
  0.4190854874021842  0.7354133828985409  0.3918477566078212
  0.5639709894570535  0.1420274037711237  0.6735869119468131
  0.7755353761223438  0.5437054988636506  0.2785149848817057
  0.8698758388452665  0.8700442673784862  0.4504221174641089
  0.5859342877126528  0.2366414554012917  0.5701060186057995
  0.6513770094325108  0.2755704695085642  0.4952659079319608
  0.8084738091010653  0.1649347462855566  0.6164027831201025
  0.1836330410003460  0.8747365817833931  0.2852702402411774
  0.3398452022952528  0.0810780562397911  0.3553603062645252
  0.7102919914604318  0.6026126149983766  0.6475788402050159
  0.3168791918615030  0.6318052244448864  0.5900493537519249
  0.5205501780067110  0.5134762124089096  0.3187087237852554
  0.8832213548943761  0.9236338177648447  0.6851363696002148
  0.1987348481887361  0.7327270808692923  0.5313646063911667
  0.4690878482341063  0.0720158189551530  0.5317117659220076
  0.1300602793727207  0.3779937287328292  0.4841257629939845
  0.1926024852177776  0.9636976076066086  0.3711946376013472
  0.6441058757798196  0.7676449936766252  0.6467775140904372
  0.6709480051231427  0.0728575664673005  0.5577602563424442
  0.2224780348956987  0.5440095003597939  0.3464458725569459
  0.3946737160370531  0.6746177372677133  0.3048848860283962
  0.4435633462568502  0.4126501085196012  0.5819805906596954
  0.0169578744951291  0.9631327763735963  0.4089589706986906
  0.9755079381209939  0.0548184094449639  0.5199429153455348
  0.2601087883537013  0.4905330070892561  0.6297994594555236
  0.5727759303280670  0.9742519943868775  0.2835818759572976
  0.8036906161387818  0.2888656303360681  0.2954290753200516
  0.0190986144848326  0.6114871237842029  0.4672866027966484
  0.0198338076124199  0.2508877141111324  0.4317824491773088
  0.5081926213782092  0.7078291530156970  0.5974740383313928
  0.4266595950477414  0.3706422500868979  0.3785841057352785
  0.2588021954166276  0.1308304470608322  0.4686988551949077
  0.8415886777233366  0.1874584349395328  0.5320068507860044
  0.1734508925641183  0.2905698684728280  0.6078262366457092
  0.0229318834485587  0.2040859635950275  0.5766830487377537
  0.9049100674692032  0.6589378459984998  0.6295109862969959
  0.7507382696896580  0.8864647909121329  0.2725281949214572
  0.7645547661478839  0.7898267493492624  0.5837710652060072
  0.5088650784173785  0.1359444522880300  0.6332145202983408
  0.8461400010814644  0.6669099252190135  0.5083964731212406
  0.3076862152811422  0.8393636560997113  0.5805725161935473
  0.3809183797618705  0.0206983502558126  0.6752323256120500
  0.3455247587403976  0.2171709903941755  0.4155104867080034
  0.6155572453863764  0.1047916985063563  0.4566840713954659
  0.1501180802740870  0.5465746563345339  0.5154774328866856
  0.5124942063196223  0.4571319849125658  0.4340382148745535
  0.1332624286169126  0.3850473597502609  0.3029706456520990
  0.5462896332202349  0.9080231777553818  0.3676405264521742
  0.8351188220840192  0.5486773959930067  0.3564438852699982
  0.5977555817215634  0.5447214773718938  0.5882654770406049
  0.0105787115249994  0.6488696182520902  0.3323976781654364
  0.6944347320286202  0.3930068301206244  0.5680392799030309
  0.2245476995515945  0.7572998747406711  0.3507240684279475
  0.8829843273810765  0.4792931653620474  0.5350771451819534
  0.8555029246341801  0.0631054552578942  0.4597434598795849
  0.3446218748000479  0.0255522171972563  0.5982630479257441
  0.6843217299744702  0.4220846361223299  0.3236505111948607
  0.7414241438978248  0.1823596328733970  0.3780892924940403
  0.5194880122561485  0.0939006795878179  0.3664309192967838
  0.0015440527989061  0.8144505313710676  0.5958549971351303
  0.3771456302911043  0.2844047661855417  0.6574703040303123
  0.3989820961099996  0.9659268104745869  0.4247575587846336
  0.6131138891664699  0.5751845005730584  0.3801474595444908
  0.6480478389790836  0.1727777839368627  0.2538018724588691
  0.6888864299264553  0.7593174419382113  0.4138573594639826
  0.8256301765440426  0.8941429606457217  0.3568488685870017
  0.9554746861694043  0.4432763558852372  0.4388552360782054
  0.8513534162726034  0.8512034809673491  0.6535408614390663
  0.6035622414984554  0.4924279219240978  0.5086907071837617
  0.0428652687908553  0.5169394379578758  0.6315540833490826
  0.4274770679413371  0.6175965473511446  0.6589615959538552
  0.6181437076863746  0.6469776093177388  0.2485992967374522
  0.5520456358608700  0.4421686748476483  0.6551281160005286
  0.5879620115351253  0.7540029699284700  0.3272262178854500
  0.7630057688867367  0.7204223787260715  0.3343069964754447
  0.6850677060540897  0.3727840192999722  0.4054395963094430
  0.7694661628682028  0.4164772246546233  0.4904740476116757
  0.2930593752625452  0.4173784625848644  0.4335649495612780
  0.9133986788051371  0.6410408075110907  0.7043757404432182
  0.5239122801352183  0.8652212537298425  0.6991057362985008
  0.8267293025228829  0.0662924219970098  0.2961945052454780
  0.1595441958496915  0.1450382494234288  0.3965895619244126
  0.2091086567516664  0.1216042498088293  0.6548751731844544
  0.5637621126859457  0.8815508848762684  0.5510691239085893
  0.1618976219792176  0.3367661092339621  0.3864482995456257
  0.0910327022121108  0.1834709468112568  0.4915618015152670
  0.2399573262518958  0.4123254903768950  0.5555232498703505
  0.9888767774958365  0.2518671120380784  0.6653593049264250
  0.0555341231771611  0.7732077240376947  0.3796878947958206
  0.9153266867969042  0.0796093703074870  0.3692436062613059
  0.6502276075858894  0.0003363903460941  0.6290805190663550
  0.4490778616915241  0.6003826053147810  0.5381787300003741
  0.8211782969438525  0.4445998910162005  0.6472311133092788
  0.1627069693409917  0.6126617126408928  0.4182990389717055
  0.3990526113487098  0.8277869750769925  0.5083163986029472
  0.1694149107139963  0.6191912098074367  0.6938436430664033
  0.3325090540387856  0.7803245527132582  0.6635769955313572
  0.1560563176569170  0.6749322210550353  0.2849219421582923
  0.1511333608132188  0.1111381095236163  0.3126290567731250
  0.6811677196022357  0.2922593808401778  0.6455069192711449
  0.1616379745990038  0.9038502025019024  0.6309398359044178
  0.2893041675009668  0.2947351365081889  0.4915448193834836
  0.7485317639933470  0.7258869713313574  0.7270649066216446
  0.8375259017124099  0.2785068090224925  0.7086178940888831
  0.9087192048765538  0.6454497160673214  0.7340153297981427
  0.9814292257194537  0.2505362897049663  0.6951086745448374
 
  0.00000000E+00  0.00000000E+00  0.00000000E+00
  0.00000000E+00  0.00000000E+00  0.00000000E+00
  0.00000000E+00  0.00000000E+00  0.00000000E+00
  0.00000000E+00  0.00000000E+00  0.00000000E+00
  0.00000000E+00  0.00000000E+00  0.00000000E+00
  0.00000000E+00  0.00000000E+00  0.00000000E+00
  0.00000000E+00  0.00000000E+00  0.00000000E+00
  0.00000000E+00  0.00000000E+00  0.00000000E+00
  0.00000000E+00  0.00000000E+00  0.00000000E+00
  0.00000000E+00  0.00000000E+00  0.00000000E+00
  0.00000000E+00  0.00000000E+00  0.00000000E+00
  0.00000000E+00  0.00000000E+00  0.00000000E+00
  0.00000000E+00  0.00000000E+00  0.00000000E+00
  0.00000000E+00  0.00000000E+00  0.00000000E+00
  0.00000000E+00  0.00000000E+00  0.00000000E+00
  0.00000000E+00  0.00000000E+00  0.00000000E+00
  0.00000000E+00  0.00000000E+00  0.00000000E+00
  0.00000000E+00  0.00000000E+00  0.00000000E+00
  0.00000000E+00  0.00000000E+00  0.00000000E+00
  0.00000000E+00  0.00000000E+00  0.00000000E+00
  0.00000000E+00  0.00000000E+00  0.00000000E+00
  0.00000000E+00  0.00000000E+00  0.00000000E+00
  0.00000000E+00  0.00000000E+00  0.00000000E+00
  0.00000000E+00  0.00000000E+00  0.00000000E+00
  0.00000000E+00  0.00000000E+00  0.00000000E+00
  0.00000000E+00  0.00000000E+00  0.00000000E+00
  0.00000000E+00  0.00000000E+00  0.00000000E+00
  0.00000000E+00  0.00000000E+00  0.00000000E+00
  0.00000000E+00  0.00000000E+00  0.00000000E+00
  0.00000000E+00  0.00000000E+00  0.00000000E+00
  0.00000000E+00  0.00000000E+00  0.00000000E+00
  0.00000000E+00  0.00000000E+00  0.00000000E+00
  0.00000000E+00  0.00000000E+00  0.00000000E+00
  0.00000000E+00  0.00000000E+00  0.00000000E+00
  0.00000000E+00  0.00000000E+00  0.00000000E+00
  0.00000000E+00  0.00000000E+00  0.00000000E+00
  0.00000000E+00  0.00000000E+00  0.00000000E+00
  0.00000000E+00  0.00000000E+00  0.00000000E+00
  0.00000000E+00  0.00000000E+00  0.00000000E+00
  0.00000000E+00  0.00000000E+00  0.00000000E+00
  0.00000000E+00  0.00000000E+00  0.00000000E+00
  0.00000000E+00  0.00000000E+00  0.00000000E+00
  0.00000000E+00  0.00000000E+00  0.00000000E+00
  0.00000000E+00  0.00000000E+00  0.00000000E+00
  0.00000000E+00  0.00000000E+00  0.00000000E+00
  0.00000000E+00  0.00000000E+00  0.00000000E+00
  0.00000000E+00  0.00000000E+00  0.00000000E+00
  0.00000000E+00  0.00000000E+00  0.00000000E+00
  0.00000000E+00  0.00000000E+00  0.00000000E+00
  0.00000000E+00  0.00000000E+00  0.00000000E+00
  0.00000000E+00  0.00000000E+00  0.00000000E+00
  0.00000000E+00  0.00000000E+00  0.00000000E+00
  0.00000000E+00  0.00000000E+00  0.00000000E+00
  0.00000000E+00  0.00000000E+00  0.00000000E+00
  0.00000000E+00  0.00000000E+00  0.00000000E+00
  0.00000000E+00  0.00000000E+00  0.00000000E+00
  0.00000000E+00  0.00000000E+00  0.00000000E+00
  0.00000000E+00  0.00000000E+00  0.00000000E+00
  0.00000000E+00  0.00000000E+00  0.00000000E+00
  0.00000000E+00  0.00000000E+00  0.00000000E+00
  0.00000000E+00  0.00000000E+00  0.00000000E+00
  0.00000000E+00  0.00000000E+00  0.00000000E+00
  0.00000000E+00  0.00000000E+00  0.00000000E+00
  0.00000000E+00  0.00000000E+00  0.00000000E+00
  0.00000000E+00  0.00000000E+00  0.00000000E+00
  0.00000000E+00  0.00000000E+00  0.00000000E+00
  0.00000000E+00  0.00000000E+00  0.00000000E+00
  0.00000000E+00  0.00000000E+00  0.00000000E+00
  0.00000000E+00  0.00000000E+00  0.00000000E+00
  0.00000000E+00  0.00000000E+00  0.00000000E+00
  0.00000000E+00  0.00000000E+00  0.00000000E+00
  0.00000000E+00  0.00000000E+00  0.00000000E+00
  0.00000000E+00  0.00000000E+00  0.00000000E+00
  0.00000000E+00  0.00000000E+00  0.00000000E+00
  0.00000000E+00  0.00000000E+00  0.00000000E+00
  0.00000000E+00  0.00000000E+00  0.00000000E+00
  0.00000000E+00  0.00000000E+00  0.00000000E+00
  0.00000000E+00  0.00000000E+00  0.00000000E+00
  0.00000000E+00  0.00000000E+00  0.00000000E+00
  0.00000000E+00  0.00000000E+00  0.00000000E+00
  0.00000000E+00  0.00000000E+00  0.00000000E+00
  0.00000000E+00  0.00000000E+00  0.00000000E+00
  0.00000000E+00  0.00000000E+00  0.00000000E+00
  0.00000000E+00  0.00000000E+00  0.00000000E+00
  0.00000000E+00  0.00000000E+00  0.00000000E+00
  0.00000000E+00  0.00000000E+00  0.00000000E+00
  0.00000000E+00  0.00000000E+00  0.00000000E+00
  0.00000000E+00  0.00000000E+00  0.00000000E+00
  0.00000000E+00  0.00000000E+00  0.00000000E+00
  0.00000000E+00  0.00000000E+00  0.00000000E+00
  0.00000000E+00  0.00000000E+00  0.00000000E+00
  0.00000000E+00  0.00000000E+00  0.00000000E+00
  0.00000000E+00  0.00000000E+00  0.00000000E+00
  0.00000000E+00  0.00000000E+00  0.00000000E+00
  0.00000000E+00  0.00000000E+00  0.00000000E+00
  0.00000000E+00  0.00000000E+00  0.00000000E+00
  0.00000000E+00  0.00000000E+00  0.00000000E+00
  0.00000000E+00  0.00000000E+00  0.00000000E+00
  0.00000000E+00  0.00000000E+00  0.00000000E+00
  0.00000000E+00  0.00000000E+00  0.00000000E+00
  0.00000000E+00  0.00000000E+00  0.00000000E+00
  0.00000000E+00  0.00000000E+00  0.00000000E+00
  0.00000000E+00  0.00000000E+00  0.00000000E+00
  0.00000000E+00  0.00000000E+00  0.00000000E+00
  0.00000000E+00  0.00000000E+00  0.00000000E+00
  0.00000000E+00  0.00000000E+00  0.00000000E+00
  0.00000000E+00  0.00000000E+00  0.00000000E+00
  0.00000000E+00  0.00000000E+00  0.00000000E+00
  0.00000000E+00  0.00000000E+00  0.00000000E+00
  0.00000000E+00  0.00000000E+00  0.00000000E+00
  0.00000000E+00  0.00000000E+00  0.00000000E+00
  0.00000000E+00  0.00000000E+00  0.00000000E+00
  0.00000000E+00  0.00000000E+00  0.00000000E+00
  0.00000000E+00  0.00000000E+00  0.00000000E+00
  0.00000000E+00  0.00000000E+00  0.00000000E+00
  0.00000000E+00  0.00000000E+00  0.00000000E+00
  0.00000000E+00  0.00000000E+00  0.00000000E+00
  0.00000000E+00  0.00000000E+00  0.00000000E+00
  0.00000000E+00  0.00000000E+00  0.00000000E+00
  0.00000000E+00  0.00000000E+00  0.00000000E+00
  0.00000000E+00  0.00000000E+00  0.00000000E+00
  0.00000000E+00  0.00000000E+00  0.00000000E+00
  0.00000000E+00  0.00000000E+00  0.00000000E+00
  0.00000000E+00  0.00000000E+00  0.00000000E+00
  0.00000000E+00  0.00000000E+00  0.00000000E+00
  0.00000000E+00  0.00000000E+00  0.00000000E+00
  0.00000000E+00  0.00000000E+00  0.00000000E+00
  0.00000000E+00  0.00000000E+00  0.00000000E+00
  0.00000000E+00  0.00000000E+00  0.00000000E+00
  0.00000000E+00  0.00000000E+00  0.00000000E+00
  0.00000000E+00  0.00000000E+00  0.00000000E+00
  0.00000000E+00  0.00000000E+00  0.00000000E+00
  0.00000000E+00  0.00000000E+00  0.00000000E+00
  0.00000000E+00  0.00000000E+00  0.00000000E+00
  0.00000000E+00  0.00000000E+00  0.00000000E+00
  0.00000000E+00  0.00000000E+00  0.00000000E+00
  0.00000000E+00  0.00000000E+00  0.00000000E+00
  0.00000000E+00  0.00000000E+00  0.00000000E+00
  0.00000000E+00  0.00000000E+00  0.00000000E+00
  0.00000000E+00  0.00000000E+00  0.00000000E+00
  0.00000000E+00  0.00000000E+00  0.00000000E+00
  0.00000000E+00  0.00000000E+00  0.00000000E+00
  0.00000000E+00  0.00000000E+00  0.00000000E+00
  0.00000000E+00  0.00000000E+00  0.00000000E+00
  0.00000000E+00  0.00000000E+00  0.00000000E+00
  0.00000000E+00  0.00000000E+00  0.00000000E+00
  0.00000000E+00  0.00000000E+00  0.00000000E+00
  0.00000000E+00  0.00000000E+00  0.00000000E+00
  0.00000000E+00  0.00000000E+00  0.00000000E+00
  0.00000000E+00  0.00000000E+00  0.00000000E+00
  0.00000000E+00  0.00000000E+00  0.00000000E+00
  0.00000000E+00  0.00000000E+00  0.00000000E+00
  0.00000000E+00  0.00000000E+00  0.00000000E+00
  0.00000000E+00  0.00000000E+00  0.00000000E+00
  0.00000000E+00  0.00000000E+00  0.00000000E+00
  0.00000000E+00  0.00000000E+00  0.00000000E+00
  0.00000000E+00  0.00000000E+00  0.00000000E+00
  0.00000000E+00  0.00000000E+00  0.00000000E+00
  0.00000000E+00  0.00000000E+00  0.00000000E+00
  0.00000000E+00  0.00000000E+00  0.00000000E+00
  0.00000000E+00  0.00000000E+00  0.00000000E+00
  0.00000000E+00  0.00000000E+00  0.00000000E+00
  0.00000000E+00  0.00000000E+00  0.00000000E+00
  0.00000000E+00  0.00000000E+00  0.00000000E+00
  0.00000000E+00  0.00000000E+00  0.00000000E+00
  0.00000000E+00  0.00000000E+00  0.00000000E+00
  0.00000000E+00  0.00000000E+00  0.00000000E+00
  0.00000000E+00  0.00000000E+00  0.00000000E+00
  0.00000000E+00  0.00000000E+00  0.00000000E+00
  0.00000000E+00  0.00000000E+00  0.00000000E+00
  0.00000000E+00  0.00000000E+00  0.00000000E+00
  0.00000000E+00  0.00000000E+00  0.00000000E+00
  0.00000000E+00  0.00000000E+00  0.00000000E+00
  0.00000000E+00  0.00000000E+00  0.00000000E+00
  0.00000000E+00  0.00000000E+00  0.00000000E+00
  0.00000000E+00  0.00000000E+00  0.00000000E+00
  0.00000000E+00  0.00000000E+00  0.00000000E+00
  0.00000000E+00  0.00000000E+00  0.00000000E+00
  0.00000000E+00  0.00000000E+00  0.00000000E+00
  0.00000000E+00  0.00000000E+00  0.00000000E+00
  0.00000000E+00  0.00000000E+00  0.00000000E+00
  0.00000000E+00  0.00000000E+00  0.00000000E+00
  0.00000000E+00  0.00000000E+00  0.00000000E+00
  0.00000000E+00  0.00000000E+00  0.00000000E+00
  0.00000000E+00  0.00000000E+00  0.00000000E+00
  0.00000000E+00  0.00000000E+00  0.00000000E+00
  0.00000000E+00  0.00000000E+00  0.00000000E+00
  0.00000000E+00  0.00000000E+00  0.00000000E+00
  0.00000000E+00  0.00000000E+00  0.00000000E+00
  0.00000000E+00  0.00000000E+00  0.00000000E+00
  0.00000000E+00  0.00000000E+00  0.00000000E+00
  0.00000000E+00  0.00000000E+00  0.00000000E+00
  0.00000000E+00  0.00000000E+00  0.00000000E+00
  0.00000000E+00  0.00000000E+00  0.00000000E+00
  0.00000000E+00  0.00000000E+00  0.00000000E+00
  0.00000000E+00  0.00000000E+00  0.00000000E+00
  0.00000000E+00  0.00000000E+00  0.00000000E+00
  0.00000000E+00  0.00000000E+00  0.00000000E+00
  0.00000000E+00  0.00000000E+00  0.00000000E+00
  0.00000000E+00  0.00000000E+00  0.00000000E+00
  0.00000000E+00  0.00000000E+00  0.00000000E+00
  0.00000000E+00  0.00000000E+00  0.00000000E+00
  0.00000000E+00  0.00000000E+00  0.00000000E+00
  0.00000000E+00  0.00000000E+00  0.00000000E+00
  0.00000000E+00  0.00000000E+00  0.00000000E+00
  0.00000000E+00  0.00000000E+00  0.00000000E+00
  0.00000000E+00  0.00000000E+00  0.00000000E+00
  0.00000000E+00  0.00000000E+00  0.00000000E+00
  0.00000000E+00  0.00000000E+00  0.00000000E+00
  0.00000000E+00  0.00000000E+00  0.00000000E+00
  0.00000000E+00  0.00000000E+00  0.00000000E+00
  0.00000000E+00  0.00000000E+00  0.00000000E+00
  0.00000000E+00  0.00000000E+00  0.00000000E+00
  0.00000000E+00  0.00000000E+00  0.00000000E+00
  0.00000000E+00  0.00000000E+00  0.00000000E+00
  0.00000000E+00  0.00000000E+00  0.00000000E+00
  0.00000000E+00  0.00000000E+00  0.00000000E+00
  0.00000000E+00  0.00000000E+00  0.00000000E+00
  0.00000000E+00  0.00000000E+00  0.00000000E+00
  0.00000000E+00  0.00000000E+00  0.00000000E+00
