Hf  O  F                                
   1.00000000000000     
    13.7225301000000002    0.0000000000000000    0.0000000000000000
     0.0000000000000000   13.7225301000000002    0.0000000000000000
     0.0000000000000000    0.0000000000000000   32.7225301000000002
   Hf   O    F 
    72   134    20
Selective dynamics
Direct
  0.1362248827505326  0.8674318530115244  0.4166419926673512   F   F   F
  0.8666823816223999  0.9469533877625268  0.5046317159156739   T   T   T
  0.0225942766102776  0.6270292756935447  0.3945197508585068   F   F   F
  0.8738375187958241  0.6422807334719352  0.3030733668587473   F   F   F
  0.0747600824243548  0.7867743823649178  0.3146695938578574   F   F   F
  0.4111586461839261  0.9427351238598151  0.5446967164468743   T   T   T
  0.6294603519176576  0.5148197354520079  0.2774755992424502   F   F   F
  0.6797862832746944  0.7488718431475334  0.2786741083629067   F   F   F
  0.0417949015819191  0.6752809865700666  0.6480223306076490   T   T   T
  0.2828592525475813  0.0580976344398607  0.4113559499634150   F   F   F
  0.9275631570040517  0.7410291544037477  0.4677958891650107   F   F   F
  0.2859290233621437  0.7625462908132050  0.2930066613476754   F   F   F
  0.1017141309847602  0.5287797796419227  0.3095085958343233   F   F   F
  0.3442737210800742  0.1699588378810715  0.5213367043868442   T   T   T
  0.5653716114948630  0.9867770540424274  0.6764855076728366   T   T   T
  0.2835895578034046  0.5372209975784743  0.6913879224250732   T   T   T
  0.5544108935772578  0.3734948535783074  0.5399656693514986   T   T   T
  0.4648562957920248  0.9817891360786390  0.3313698961765255   F   F   F
  0.2837133940148888  0.6602598701606155  0.3859683453061749   F   F   F
  0.8867232743905024  0.7228863888706878  0.5681743681265211   T   T   T
  0.8372982804186861  0.4310611117959056  0.3153643524806000   F   F   F
  0.9098975364939823  0.0983403685770231  0.5745209351095386   T   T   T
  0.0116742983313145  0.3565300287031121  0.3900626623074430   F   F   F
  0.9255111457836447  0.5057631660881915  0.5936658804435907   T   T   T
  0.1636562841689932  0.5334898574816923  0.5861848900699884   T   T   T
  0.1774465507518670  0.2491217791990508  0.4456301665570663   F   F   F
  0.1078940345337841  0.2903349060374315  0.5460511388572168   T   T   T
  0.7461402044272883  0.5567443357236551  0.5152811828537468   T   T   T
  0.3666165692925356  0.1249003410814871  0.6365115965257434   T   T   T
  0.6686497479463693  0.1738096129411062  0.6154781879371232   T   T   T
  0.4830774976255521  0.3246557086658832  0.6887128649324817   T   T   T
  0.2670172809700059  0.4495208781453176  0.4951850809715918   T   T   T
  0.3053271118324002  0.3394679452831206  0.6055104282904880   T   T   T
  0.8615430910852098  0.9811718761377790  0.4082549417030705   F   F   F
  0.1564719452248593  0.0464162880079340  0.5078000919450883   T   T   T
  0.8226478646890659  0.5985895146095773  0.6847859290993606   T   T   T
  0.4916387852928210  0.6434499087635217  0.3469339165609711   F   F   F
  0.0154610469452754  0.4735083065208143  0.4998087803099617   T   T   T
  0.8796802193484083  0.9226061635261118  0.3024546211802672   F   F   F
  0.4156650669205106  0.8177279841074565  0.4417846330149331   F   F   F
  0.4266156591101478  0.3343500072301211  0.4471744420722814   F   F   F
  0.6094244904579699  0.7992946689045215  0.4999342670672124   T   T   T
  0.3433997672117453  0.7031959695493386  0.5355008699987709   T   T   T
  0.1445531566673056  0.8172023158640161  0.5756672646780374   T   T   T
  0.6818912062918159  0.2334388454933389  0.4324865174560131   F   F   F
  0.5664560234058058  0.0042391841142546  0.4184997825385963   F   F   F
  0.3318062870471624  0.8862006560948708  0.6376582399020609   T   T   T
  0.4916844977319170  0.5604500015895046  0.4800318153792187   T   T   T
  0.5929039613566320  0.1539972250754751  0.5192164764433893   T   T   T
  0.0684112772452750  0.0514097151278179  0.3619893468145889   F   F   F
  0.8103008770948463  0.4204843201528377  0.4319572399929896   F   F   F
  0.6909726815227799  0.9260563887515056  0.5736406640194028   T   T   T
  0.4839118314878880  0.7186983368291756  0.6703932335353171   T   T   T
  0.6844265679267849  0.8447563575640800  0.3656604035613711   F   F   F
  0.2498074010011564  0.0024820945120538  0.2980987301286220   F   F   F
  0.4401263699272922  0.5551754450797275  0.5978962480195689   T   T   T
  0.6548018632275756  0.2862691907538348  0.2891972673552416   F   F   F
  0.6553125243979865  0.6725612765477581  0.5996507834393726   T   T   T
  0.0531982002591775  0.9286635082869302  0.6529192749940239   T   T   T
  0.7470072027489891  0.6345958651175110  0.3927949526715580   F   F   F
  0.2935567867715463  0.4244947281288631  0.3702984883267320   F   F   F
  0.6885244107495865  0.0480210126884515  0.2705796756096035   F   F   F
  0.5688479814933984  0.4245065994561514  0.3742101600459691   F   F   F
  0.4335229649922709  0.2174729734533187  0.3617403180778211   F   F   F
  0.6838326637174745  0.4491795556658137  0.6268221943832060   T   T   T
  0.1629072120217514  0.6686952170524121  0.4758221200352366   T   T   T
  0.8641763280119963  0.2972302029900253  0.6484690420865669   T   T   T
  0.8551905596872160  0.1974512988364054  0.3422994946251308   F   F   F
  0.0780640373270087  0.1780833318243440  0.6357045788843606   T   T   T
  0.8169700021760378  0.3346219655701856  0.5340513872191313   T   T   T
  0.9373436252118305  0.1877616263633171  0.4784908076756216   T   T   T
  0.1616690453522622  0.2560204105264745  0.3298309837996740   F   F   F
  0.3049078321207332  0.2875419471495491  0.3352740561066057   F   F   F
  0.9352624831575987  0.8251026608942017  0.5233541853006936   T   T   T
  0.3607541713503579  0.8901635566138424  0.3094384523532057   F   F   F
  0.5473615467785109  0.8904712284317711  0.4570544033948494   F   F   F
  0.0567611647206272  0.4348244377561284  0.5612875533072305   T   T   T
  0.0422195798238860  0.4943561175309341  0.3669441822579884   F   F   F
  0.0068340100082093  0.0421014505872602  0.6164272464160135   T   T   T
  0.3136947090322251  0.6088287387466064  0.4827798258288331   T   T   T
  0.1888334083644878  0.9733298032896940  0.4523524930603600   F   F   F
  0.0099005247347677  0.2449565715146989  0.3438245927785815   F   F   F
  0.3162828839136793  0.0528270771050288  0.2561267181627187   F   F   F
  0.1260172719185352  0.9351009083031934  0.5443388721115139   T   T   T
  0.4642085176332594  0.8724499817318909  0.6682326213084810   T   T   T
  0.7055833041954003  0.9685018427856278  0.4032410368584678   F   F   F
  0.2972917544311215  0.0200977436852737  0.5272868626872765   T   T   T
  0.7585786501586824  0.5619828108919904  0.4448067388749948   F   F   F
  0.8835720152006155  0.3568839667922205  0.5892811553420640   T   T   T
  0.3646753056173529  0.2035934866262132  0.5832653875815835   T   T   T
  0.8329231896756942  0.9738243138090402  0.5656371866642410   T   T   T
  0.2629952254942509  0.7730668542790369  0.4355206382809200   F   F   F
  0.0203018350088016  0.9381153613447708  0.3208978167787038   F   F   F
  0.7242340190985237  0.8908697892035524  0.5090873233884562   T   T   T
  0.3869418166754954  0.5550197080282899  0.3773878285710808   F   F   F
  0.9366113551046666  0.7838709015859919  0.2867270942373423   F   F   F
  0.8246993726769958  0.2724807700490715  0.4509223812659755   F   F   F
  0.0719194749101533  0.7856550821857127  0.4616356930969943   F   F   F
  0.1508085018616808  0.6782632080900435  0.6050068960859174   T   T   T
  0.8692613397515672  0.3522613978860250  0.3693036553252256   F   F   F
  0.5086693674180509  0.7053055060469333  0.4655821335629895   F   F   F
  0.7848510265607225  0.5930956885497072  0.5757642277359500   T   T   T
  0.2044926717268186  0.1732215275092108  0.5421480512480485   T   T   T
  0.5485298122957403  0.2851240367657155  0.3301800021180128   F   F   F
  0.9544545848441004  0.5037672942624738  0.2896111414666578   F   F   F
  0.6494946036313310  0.6791082994926291  0.5307543601296523   T   T   T
  0.5401092903720723  0.2647908928536324  0.4157603512433283   F   F   F
  0.9884743991397170  0.6230519826242872  0.5581506713936060   T   T   T
  0.9669713824503415  0.3198112088411828  0.5109373143692878   T   T   T
  0.4759302889192386  0.2580500009335825  0.5047250916463694   T   T   T
  0.4179658422245132  0.4371097762893353  0.5001103696263286   T   T   T
  0.8926124465512544  0.6852509986737090  0.4107342033344352   F   F   F
  0.4200876547530115  0.7352485988705979  0.3901515973022995   F   F   F
  0.5484162859970095  0.2167335658173279  0.6513374403686486   T   T   T
  0.7764677940880915  0.5427980288217071  0.2778629484862734   F   F   F
  0.8672924912431981  0.8704525491273714  0.4490875314859863   F   F   F
  0.5917615731045327  0.2467466497305641  0.5703843116067879   T   T   T
  0.6616021589562052  0.2740614826169625  0.4963870196973711   T   T   T
  0.8180150331977578  0.1644264106968925  0.6142833592120438   T   T   T
  0.1787949481875941  0.8676027237991875  0.2813152636084126   F   F   F
  0.3468860146029797  0.0784787689193109  0.3454411678601659   F   F   F
  0.6988855408921890  0.5913047890127717  0.6494719353307923   T   T   T
  0.3031411702560058  0.5953334765073428  0.5745418766566718   T   T   T
  0.5209510639653061  0.5103424314101517  0.3179224057323609   F   F   F
  0.0602353375576662  0.8815736102445011  0.7108407508451857   T   T   T
  0.1990724593649064  0.7406902686100071  0.5269886325964070   T   T   T
  0.4688303258361831  0.0707636021202561  0.5228176710269480   T   T   T
  0.1331015781758896  0.3743942009113234  0.4830222650042968   T   T   T
  0.1939239131473300  0.9632427121076290  0.3720698571316206   F   F   F
  0.6644890152823192  0.0754028780384710  0.5628552539876397   T   T   T
  0.2231249977367753  0.5450312577583958  0.3462682900882612   F   F   F
  0.3972794474461878  0.6761200112435404  0.3029412767086868   F   F   F
  0.4395285383705553  0.4051998755046368  0.5833531318974001   T   T   T
  0.0173718785936430  0.9595835418495682  0.4086732705475384   F   F   F
  0.9757085082267567  0.0517079757150307  0.5176671701682984   T   T   T
  0.2593962335393143  0.4692980597859210  0.6313620715018723   T   T   T
  0.5614180530807928  0.9986962763056653  0.2888519061938410   F   F   F
  0.8068685084785443  0.2886124008540349  0.2955470249216106   F   F   F
  0.0175186870126467  0.6108011535760411  0.4661665927476832   F   F   F
  0.0204736474307836  0.2489555168692590  0.4300562988101362   F   F   F
  0.5044135204469224  0.6941951664399745  0.6084209551260042   T   T   T
  0.4281094371962268  0.3687049171220593  0.3782791813424851   F   F   F
  0.2583208509961636  0.1302034331916815  0.4661467209183598   F   F   F
  0.8429209297668242  0.1875400743898457  0.5301146435106426   T   T   T
  0.1694940296551715  0.2830698887793637  0.6080108741406078   T   T   T
  0.0187576611592278  0.2027949123456090  0.5800820029210217   T   T   T
  0.9023143930628954  0.6524681152116707  0.6286718331524804   T   T   T
  0.7401972228840776  0.8889079979522023  0.2758404070975971   F   F   F
  0.7504153798081608  0.7888751155675663  0.5875413265441068   T   T   T
  0.5211565728358932  0.1241628107453241  0.6304929276919451   T   T   T
  0.8357212789693476  0.6768934633537744  0.5067921208281215   T   T   T
  0.3257633740877751  0.8256211708668425  0.5798387740500350   T   T   T
  0.3542438472579335  0.2087363362762318  0.4137203452795504   F   F   F
  0.6186647553201610  0.1068378058977686  0.4583338433151383   F   F   F
  0.1528199741959824  0.5458697545435278  0.5140993856047907   T   T   T
  0.5140560696591336  0.4593395278647279  0.4337502415732928   F   F   F
  0.1394894970582854  0.3863946735864943  0.3027559198026069   F   F   F
  0.5472622721037297  0.9039022705455366  0.3701037634389266   F   F   F
  0.8368741765124881  0.5490739659712247  0.3556502114147619   F   F   F
  0.5878342151974965  0.5309647370188006  0.5917447776194042   T   T   T
  0.0108235917414987  0.6490944335262441  0.3308338773632826   F   F   F
  0.6986722924251912  0.4014419948376527  0.5642396729498479   T   T   T
  0.2310824955142792  0.7589413780292915  0.3479634505197140   F   F   F
  0.8849072343096255  0.4834979354428063  0.5307736069308354   T   T   T
  0.8543573459998584  0.0637392115932087  0.4582920418658247   F   F   F
  0.3978576446476201  0.9954323438959910  0.6045498149294091   T   T   T
  0.6863654010861424  0.4212397745417604  0.3231412819367847   F   F   F
  0.7489295764262778  0.1812610713679348  0.3809978011225610   F   F   F
  0.5188945078912397  0.0926310214905044  0.3720291896541781   F   F   F
  0.0103207077792093  0.8097960191506285  0.6054716596734482   T   T   T
  0.3594643534001443  0.2661160560560381  0.6586950659879391   T   T   T
  0.3981515952761754  0.9628968680990084  0.4206942397198858   F   F   F
  0.6148121547104211  0.5743476939175096  0.3786363518357376   F   F   F
  0.6544566243041317  0.1764981293629830  0.2507260434131382   F   F   F
  0.6903870905067393  0.7606225839663807  0.4118385402574773   F   F   F
  0.8295513882872285  0.8940041615364223  0.3561920276110513   F   F   F
  0.9571572005035804  0.4427908213924283  0.4385178138019228   F   F   F
  0.0209342990654956  0.8034470147256170  0.6845015935358802   T   T   T
  0.6024801770470933  0.4961314832829166  0.5075257235942213   T   T   T
  0.0519057506990731  0.5306079914589482  0.6280157315352696   T   T   T
  0.4110334429073008  0.5857108256669981  0.6581320027324783   T   T   T
  0.6166562233485635  0.6443692857831920  0.2480885513447859   F   F   F
  0.5702479501942723  0.4142292837681655  0.6630651922533587   T   T   T
  0.5887762224127684  0.7550561721866771  0.3265038100248958   F   F   F
  0.7644688594740714  0.7201971334592656  0.3330958238475006   F   F   F
  0.6882743744252195  0.3729006688868921  0.4047166565703435   F   F   F
  0.7666467169582880  0.4211432819574017  0.4882601459306066   T   T   T
  0.2959885358517695  0.4204781590287681  0.4321498615064385   F   F   F
  0.8265997843085700  0.0654979407524792  0.2964256738633395   F   F   F
  0.1636596523160847  0.1475195823942599  0.3930932064577348   F   F   F
  0.5556530767982581  0.8749496098430877  0.5479239568190676   T   T   T
  0.1635440916954849  0.3374874656604447  0.3863705292286213   F   F   F
  0.0878690868518451  0.1795406458551101  0.4894006266960725   T   T   T
  0.2405590848665007  0.3957937102560282  0.5531237912528569   T   T   T
  0.0619660381119687  0.7723346343110578  0.3777986401210924   F   F   F
  0.9226800712717775  0.0814018792296025  0.3681847819956658   F   F   F
  0.6339457790301571  0.9480954020491520  0.6272596253973661   T   T   T
  0.4596074315795424  0.6156959963174488  0.5378879279786658   T   T   T
  0.8363361487490614  0.4635110474950148  0.6464442661487920   T   T   T
  0.1635626581181882  0.6137774209185949  0.4174815732632027   F   F   F
  0.3878895068510750  0.8299386903945124  0.5037932488314173   T   T   T
  0.1575594665534297  0.6701486059840462  0.2836926727634861   F   F   F
  0.1443213006996231  0.1123665465048731  0.3117199555095311   F   F   F
  0.7174674947297812  0.3041169588482082  0.6377648755504611   T   T   T
  0.1824121221888346  0.8879555976837498  0.6304821532026882   T   T   T
  0.2991473942916211  0.2948772852695226  0.4857438142650401   T   T   T
  0.3881460246424417  0.4284878155787550  0.7073966464679161   T   T   T
  0.5243143858607737  0.2779640346122595  0.7404295870537685   T   T   T
  0.9488035477485427  0.1740159900481405  0.6692913262668806   T   T   T
  0.1012880534159234  0.0634949268676580  0.6800616259676971   T   T   T
  0.9714084098545471  0.6058586062815544  0.6984220326960050   T   T   T
  0.1682641563250310  0.6303954023890372  0.6830941395938875   T   T   T
  0.8031482221588745  0.7314843967636436  0.7001024710422975   T   T   T
  0.7808786481748891  0.5287133278628712  0.7317633503416301   T   T   T
  0.6227148115309961  0.9371711298854053  0.7244918002000169   T   T   T
  0.6757045452638744  0.0956652047404985  0.6726218931924925   T   T   T
  0.8427043333657058  0.3177873429405710  0.7054922011072581   T   T   T
  0.0204753369386997  0.3179631760649472  0.6503686767749036   T   T   T
  0.2176684081319809  0.1145672142355268  0.6264672419160889   T   T   T
  0.4503489330779670  0.0790003852838203  0.6937531822458916   T   T   T
  0.3275175011884313  0.6218350266414787  0.7341295359591666   T   T   T
  0.2020523223269814  0.4443033370639817  0.7182691654760482   T   T   T
  0.3017682548636607  0.0057131383898968  0.6722427302327505   T   T   T
  0.3294122709423004  0.7534045626659135  0.6659069993653729   T   T   T
  0.5352915808784885  0.6797886996451304  0.7215623492150016   T   T   T
  0.6248678700115451  0.7582384025747645  0.6544831684341730   T   T   T
 
  0.00000000E+00  0.00000000E+00  0.00000000E+00
  0.00000000E+00  0.00000000E+00  0.00000000E+00
  0.00000000E+00  0.00000000E+00  0.00000000E+00
  0.00000000E+00  0.00000000E+00  0.00000000E+00
  0.00000000E+00  0.00000000E+00  0.00000000E+00
  0.00000000E+00  0.00000000E+00  0.00000000E+00
  0.00000000E+00  0.00000000E+00  0.00000000E+00
  0.00000000E+00  0.00000000E+00  0.00000000E+00
  0.00000000E+00  0.00000000E+00  0.00000000E+00
  0.00000000E+00  0.00000000E+00  0.00000000E+00
  0.00000000E+00  0.00000000E+00  0.00000000E+00
  0.00000000E+00  0.00000000E+00  0.00000000E+00
  0.00000000E+00  0.00000000E+00  0.00000000E+00
  0.00000000E+00  0.00000000E+00  0.00000000E+00
  0.00000000E+00  0.00000000E+00  0.00000000E+00
  0.00000000E+00  0.00000000E+00  0.00000000E+00
  0.00000000E+00  0.00000000E+00  0.00000000E+00
  0.00000000E+00  0.00000000E+00  0.00000000E+00
  0.00000000E+00  0.00000000E+00  0.00000000E+00
  0.00000000E+00  0.00000000E+00  0.00000000E+00
  0.00000000E+00  0.00000000E+00  0.00000000E+00
  0.00000000E+00  0.00000000E+00  0.00000000E+00
  0.00000000E+00  0.00000000E+00  0.00000000E+00
  0.00000000E+00  0.00000000E+00  0.00000000E+00
  0.00000000E+00  0.00000000E+00  0.00000000E+00
  0.00000000E+00  0.00000000E+00  0.00000000E+00
  0.00000000E+00  0.00000000E+00  0.00000000E+00
  0.00000000E+00  0.00000000E+00  0.00000000E+00
  0.00000000E+00  0.00000000E+00  0.00000000E+00
  0.00000000E+00  0.00000000E+00  0.00000000E+00
  0.00000000E+00  0.00000000E+00  0.00000000E+00
  0.00000000E+00  0.00000000E+00  0.00000000E+00
  0.00000000E+00  0.00000000E+00  0.00000000E+00
  0.00000000E+00  0.00000000E+00  0.00000000E+00
  0.00000000E+00  0.00000000E+00  0.00000000E+00
  0.00000000E+00  0.00000000E+00  0.00000000E+00
  0.00000000E+00  0.00000000E+00  0.00000000E+00
  0.00000000E+00  0.00000000E+00  0.00000000E+00
  0.00000000E+00  0.00000000E+00  0.00000000E+00
  0.00000000E+00  0.00000000E+00  0.00000000E+00
  0.00000000E+00  0.00000000E+00  0.00000000E+00
  0.00000000E+00  0.00000000E+00  0.00000000E+00
  0.00000000E+00  0.00000000E+00  0.00000000E+00
  0.00000000E+00  0.00000000E+00  0.00000000E+00
  0.00000000E+00  0.00000000E+00  0.00000000E+00
  0.00000000E+00  0.00000000E+00  0.00000000E+00
  0.00000000E+00  0.00000000E+00  0.00000000E+00
  0.00000000E+00  0.00000000E+00  0.00000000E+00
  0.00000000E+00  0.00000000E+00  0.00000000E+00
  0.00000000E+00  0.00000000E+00  0.00000000E+00
  0.00000000E+00  0.00000000E+00  0.00000000E+00
  0.00000000E+00  0.00000000E+00  0.00000000E+00
  0.00000000E+00  0.00000000E+00  0.00000000E+00
  0.00000000E+00  0.00000000E+00  0.00000000E+00
  0.00000000E+00  0.00000000E+00  0.00000000E+00
  0.00000000E+00  0.00000000E+00  0.00000000E+00
  0.00000000E+00  0.00000000E+00  0.00000000E+00
  0.00000000E+00  0.00000000E+00  0.00000000E+00
  0.00000000E+00  0.00000000E+00  0.00000000E+00
  0.00000000E+00  0.00000000E+00  0.00000000E+00
  0.00000000E+00  0.00000000E+00  0.00000000E+00
  0.00000000E+00  0.00000000E+00  0.00000000E+00
  0.00000000E+00  0.00000000E+00  0.00000000E+00
  0.00000000E+00  0.00000000E+00  0.00000000E+00
  0.00000000E+00  0.00000000E+00  0.00000000E+00
  0.00000000E+00  0.00000000E+00  0.00000000E+00
  0.00000000E+00  0.00000000E+00  0.00000000E+00
  0.00000000E+00  0.00000000E+00  0.00000000E+00
  0.00000000E+00  0.00000000E+00  0.00000000E+00
  0.00000000E+00  0.00000000E+00  0.00000000E+00
  0.00000000E+00  0.00000000E+00  0.00000000E+00
  0.00000000E+00  0.00000000E+00  0.00000000E+00
  0.00000000E+00  0.00000000E+00  0.00000000E+00
  0.00000000E+00  0.00000000E+00  0.00000000E+00
  0.00000000E+00  0.00000000E+00  0.00000000E+00
  0.00000000E+00  0.00000000E+00  0.00000000E+00
  0.00000000E+00  0.00000000E+00  0.00000000E+00
  0.00000000E+00  0.00000000E+00  0.00000000E+00
  0.00000000E+00  0.00000000E+00  0.00000000E+00
  0.00000000E+00  0.00000000E+00  0.00000000E+00
  0.00000000E+00  0.00000000E+00  0.00000000E+00
  0.00000000E+00  0.00000000E+00  0.00000000E+00
  0.00000000E+00  0.00000000E+00  0.00000000E+00
  0.00000000E+00  0.00000000E+00  0.00000000E+00
  0.00000000E+00  0.00000000E+00  0.00000000E+00
  0.00000000E+00  0.00000000E+00  0.00000000E+00
  0.00000000E+00  0.00000000E+00  0.00000000E+00
  0.00000000E+00  0.00000000E+00  0.00000000E+00
  0.00000000E+00  0.00000000E+00  0.00000000E+00
  0.00000000E+00  0.00000000E+00  0.00000000E+00
  0.00000000E+00  0.00000000E+00  0.00000000E+00
  0.00000000E+00  0.00000000E+00  0.00000000E+00
  0.00000000E+00  0.00000000E+00  0.00000000E+00
  0.00000000E+00  0.00000000E+00  0.00000000E+00
  0.00000000E+00  0.00000000E+00  0.00000000E+00
  0.00000000E+00  0.00000000E+00  0.00000000E+00
  0.00000000E+00  0.00000000E+00  0.00000000E+00
  0.00000000E+00  0.00000000E+00  0.00000000E+00
  0.00000000E+00  0.00000000E+00  0.00000000E+00
  0.00000000E+00  0.00000000E+00  0.00000000E+00
  0.00000000E+00  0.00000000E+00  0.00000000E+00
  0.00000000E+00  0.00000000E+00  0.00000000E+00
  0.00000000E+00  0.00000000E+00  0.00000000E+00
  0.00000000E+00  0.00000000E+00  0.00000000E+00
  0.00000000E+00  0.00000000E+00  0.00000000E+00
  0.00000000E+00  0.00000000E+00  0.00000000E+00
  0.00000000E+00  0.00000000E+00  0.00000000E+00
  0.00000000E+00  0.00000000E+00  0.00000000E+00
  0.00000000E+00  0.00000000E+00  0.00000000E+00
  0.00000000E+00  0.00000000E+00  0.00000000E+00
  0.00000000E+00  0.00000000E+00  0.00000000E+00
  0.00000000E+00  0.00000000E+00  0.00000000E+00
  0.00000000E+00  0.00000000E+00  0.00000000E+00
  0.00000000E+00  0.00000000E+00  0.00000000E+00
  0.00000000E+00  0.00000000E+00  0.00000000E+00
  0.00000000E+00  0.00000000E+00  0.00000000E+00
  0.00000000E+00  0.00000000E+00  0.00000000E+00
  0.00000000E+00  0.00000000E+00  0.00000000E+00
  0.00000000E+00  0.00000000E+00  0.00000000E+00
  0.00000000E+00  0.00000000E+00  0.00000000E+00
  0.00000000E+00  0.00000000E+00  0.00000000E+00
  0.00000000E+00  0.00000000E+00  0.00000000E+00
  0.00000000E+00  0.00000000E+00  0.00000000E+00
  0.00000000E+00  0.00000000E+00  0.00000000E+00
  0.00000000E+00  0.00000000E+00  0.00000000E+00
  0.00000000E+00  0.00000000E+00  0.00000000E+00
  0.00000000E+00  0.00000000E+00  0.00000000E+00
  0.00000000E+00  0.00000000E+00  0.00000000E+00
  0.00000000E+00  0.00000000E+00  0.00000000E+00
  0.00000000E+00  0.00000000E+00  0.00000000E+00
  0.00000000E+00  0.00000000E+00  0.00000000E+00
  0.00000000E+00  0.00000000E+00  0.00000000E+00
  0.00000000E+00  0.00000000E+00  0.00000000E+00
  0.00000000E+00  0.00000000E+00  0.00000000E+00
  0.00000000E+00  0.00000000E+00  0.00000000E+00
  0.00000000E+00  0.00000000E+00  0.00000000E+00
  0.00000000E+00  0.00000000E+00  0.00000000E+00
  0.00000000E+00  0.00000000E+00  0.00000000E+00
  0.00000000E+00  0.00000000E+00  0.00000000E+00
  0.00000000E+00  0.00000000E+00  0.00000000E+00
  0.00000000E+00  0.00000000E+00  0.00000000E+00
  0.00000000E+00  0.00000000E+00  0.00000000E+00
  0.00000000E+00  0.00000000E+00  0.00000000E+00
  0.00000000E+00  0.00000000E+00  0.00000000E+00
  0.00000000E+00  0.00000000E+00  0.00000000E+00
  0.00000000E+00  0.00000000E+00  0.00000000E+00
  0.00000000E+00  0.00000000E+00  0.00000000E+00
  0.00000000E+00  0.00000000E+00  0.00000000E+00
  0.00000000E+00  0.00000000E+00  0.00000000E+00
  0.00000000E+00  0.00000000E+00  0.00000000E+00
  0.00000000E+00  0.00000000E+00  0.00000000E+00
  0.00000000E+00  0.00000000E+00  0.00000000E+00
  0.00000000E+00  0.00000000E+00  0.00000000E+00
  0.00000000E+00  0.00000000E+00  0.00000000E+00
  0.00000000E+00  0.00000000E+00  0.00000000E+00
  0.00000000E+00  0.00000000E+00  0.00000000E+00
  0.00000000E+00  0.00000000E+00  0.00000000E+00
  0.00000000E+00  0.00000000E+00  0.00000000E+00
  0.00000000E+00  0.00000000E+00  0.00000000E+00
  0.00000000E+00  0.00000000E+00  0.00000000E+00
  0.00000000E+00  0.00000000E+00  0.00000000E+00
  0.00000000E+00  0.00000000E+00  0.00000000E+00
  0.00000000E+00  0.00000000E+00  0.00000000E+00
  0.00000000E+00  0.00000000E+00  0.00000000E+00
  0.00000000E+00  0.00000000E+00  0.00000000E+00
  0.00000000E+00  0.00000000E+00  0.00000000E+00
  0.00000000E+00  0.00000000E+00  0.00000000E+00
  0.00000000E+00  0.00000000E+00  0.00000000E+00
  0.00000000E+00  0.00000000E+00  0.00000000E+00
  0.00000000E+00  0.00000000E+00  0.00000000E+00
  0.00000000E+00  0.00000000E+00  0.00000000E+00
  0.00000000E+00  0.00000000E+00  0.00000000E+00
  0.00000000E+00  0.00000000E+00  0.00000000E+00
  0.00000000E+00  0.00000000E+00  0.00000000E+00
  0.00000000E+00  0.00000000E+00  0.00000000E+00
  0.00000000E+00  0.00000000E+00  0.00000000E+00
  0.00000000E+00  0.00000000E+00  0.00000000E+00
  0.00000000E+00  0.00000000E+00  0.00000000E+00
  0.00000000E+00  0.00000000E+00  0.00000000E+00
  0.00000000E+00  0.00000000E+00  0.00000000E+00
  0.00000000E+00  0.00000000E+00  0.00000000E+00
  0.00000000E+00  0.00000000E+00  0.00000000E+00
  0.00000000E+00  0.00000000E+00  0.00000000E+00
  0.00000000E+00  0.00000000E+00  0.00000000E+00
  0.00000000E+00  0.00000000E+00  0.00000000E+00
  0.00000000E+00  0.00000000E+00  0.00000000E+00
  0.00000000E+00  0.00000000E+00  0.00000000E+00
  0.00000000E+00  0.00000000E+00  0.00000000E+00
  0.00000000E+00  0.00000000E+00  0.00000000E+00
  0.00000000E+00  0.00000000E+00  0.00000000E+00
  0.00000000E+00  0.00000000E+00  0.00000000E+00
  0.00000000E+00  0.00000000E+00  0.00000000E+00
  0.00000000E+00  0.00000000E+00  0.00000000E+00
  0.00000000E+00  0.00000000E+00  0.00000000E+00
  0.00000000E+00  0.00000000E+00  0.00000000E+00
  0.00000000E+00  0.00000000E+00  0.00000000E+00
  0.00000000E+00  0.00000000E+00  0.00000000E+00
  0.00000000E+00  0.00000000E+00  0.00000000E+00
  0.00000000E+00  0.00000000E+00  0.00000000E+00
  0.00000000E+00  0.00000000E+00  0.00000000E+00
  0.00000000E+00  0.00000000E+00  0.00000000E+00
  0.00000000E+00  0.00000000E+00  0.00000000E+00
  0.00000000E+00  0.00000000E+00  0.00000000E+00
  0.00000000E+00  0.00000000E+00  0.00000000E+00
  0.00000000E+00  0.00000000E+00  0.00000000E+00
  0.00000000E+00  0.00000000E+00  0.00000000E+00
  0.00000000E+00  0.00000000E+00  0.00000000E+00
  0.00000000E+00  0.00000000E+00  0.00000000E+00
  0.00000000E+00  0.00000000E+00  0.00000000E+00
  0.00000000E+00  0.00000000E+00  0.00000000E+00
  0.00000000E+00  0.00000000E+00  0.00000000E+00
  0.00000000E+00  0.00000000E+00  0.00000000E+00
  0.00000000E+00  0.00000000E+00  0.00000000E+00
  0.00000000E+00  0.00000000E+00  0.00000000E+00
  0.00000000E+00  0.00000000E+00  0.00000000E+00
  0.00000000E+00  0.00000000E+00  0.00000000E+00
  0.00000000E+00  0.00000000E+00  0.00000000E+00
  0.00000000E+00  0.00000000E+00  0.00000000E+00
  0.00000000E+00  0.00000000E+00  0.00000000E+00
  0.00000000E+00  0.00000000E+00  0.00000000E+00
  0.00000000E+00  0.00000000E+00  0.00000000E+00
  0.00000000E+00  0.00000000E+00  0.00000000E+00
  0.00000000E+00  0.00000000E+00  0.00000000E+00
  0.00000000E+00  0.00000000E+00  0.00000000E+00
  0.00000000E+00  0.00000000E+00  0.00000000E+00
  0.00000000E+00  0.00000000E+00  0.00000000E+00
