Hf  O  F  H                             
   1.00000000000000     
    13.7225301000000002    0.0000000000000000    0.0000000000000000
     0.0000000000000000   13.7225301000000002    0.0000000000000000
     0.0000000000000000    0.0000000000000000   32.7225301000000002
   Hf   O    F    H 
    72   144     8     8
Direct
  0.1305757596769340  0.8699695441384364  0.4172114801050156
  0.8576989859648313  0.9486891658749396  0.5064318663077172
  0.0165574898556838  0.6271275674989448  0.3957837934267290
  0.8711034099688257  0.6443012888302938  0.3034496088189036
  0.0721510281191940  0.7893472091407403  0.3168555868027969
  0.4020550970176379  0.9456358919969194  0.5545992236090845
  0.6272634086877276  0.5177760864957311  0.2771159575760849
  0.6786172424390867  0.7527526414684461  0.2779786162488228
  0.0375207854132827  0.6505290800041654  0.6661803589358906
  0.2791175565263599  0.0587543533724303  0.4143986489415767
  0.9240958450420869  0.7431369721944093  0.4698311991129279
  0.2837625966252185  0.7637769841895929  0.2965958630923515
  0.0977745540346216  0.5311778676021193  0.3107363041343433
  0.3407214615570517  0.1680388300640151  0.5257166618929261
  0.5436475159327142  0.9748588002640572  0.6778495313023863
  0.2680567851494717  0.6080052054555058  0.6594231291080853
  0.5570144589560068  0.3666993461460211  0.5375085817182025
  0.4637190509643122  0.9914552426815427  0.3236063310876054
  0.2808152006928961  0.6597547062663995  0.3882525007188645
  0.8962574743388052  0.7215423960742043  0.5699174355057167
  0.8336093809062471  0.4326987436677471  0.3153104375164509
  0.9140755680806081  0.0994311923082469  0.5768443501306201
  0.0079438007575333  0.3557424330050957  0.3907527835639550
  0.9170488887781364  0.5007201634645421  0.5964095257076882
  0.1434558378789514  0.5381152533124830  0.5836797619614332
  0.1779875367841917  0.2508987572005730  0.4462714269516024
  0.1097442574284296  0.2910258183610604  0.5436653922813853
  0.7461295299276832  0.5579647252301981  0.5154235111341943
  0.3577684804247445  0.1454979695067848  0.6449247484947545
  0.6596682303431834  0.1531015611119170  0.6116813335179856
  0.5201618246367918  0.2908007228632629  0.6825631548828098
  0.2622584154469151  0.4549918984567357  0.4947947783147418
  0.3097623063927866  0.3544287822008094  0.6046729049730625
  0.8544636331271396  0.9804718871436173  0.4094406216345245
  0.1557478742917805  0.0455666056104863  0.5093196158952948
  0.7926009182979021  0.7073674837166238  0.6750855869560695
  0.4889226524681321  0.6475542861984293  0.3471286759171608
  0.0105686686197513  0.4745463412746763  0.4998516774549261
  0.8787550075447531  0.9242943859089113  0.3032767582171952
  0.4148517262558188  0.8197074964013669  0.4418903308717737
  0.4214283413081564  0.3349632043588833  0.4479138842394397
  0.5891135444823674  0.8059108089497343  0.5048775876535996
  0.3361772442258569  0.7118529140595572  0.5382787839614359
  0.1497072474007856  0.8267175301686326  0.5803814904218387
  0.6741382003514709  0.2325318440485618  0.4310430376259071
  0.5580447079966849  0.0037196418106814  0.4160372119134512
  0.3171926481963434  0.9115614147934272  0.6489122378861978
  0.4931324597480339  0.5614658348329152  0.4786145865054416
  0.5867099342657796  0.1490948840301431  0.5168194471807163
  0.0601392449518309  0.0595788512110551  0.3635250705822271
  0.8049225645342107  0.4171356044991678  0.4335236182430143
  0.6922193680978349  0.9267749356098895  0.5771797620688255
  0.5014190365633643  0.7371927633387786  0.6642514605855939
  0.6782903957046682  0.8469310312908406  0.3655370771506856
  0.2526264688389821  0.0000345555163761  0.3097748775773867
  0.4502583499274507  0.5629457580769424  0.5921494252613925
  0.6493172710208969  0.2878980134372928  0.2897607484341537
  0.6600119497671842  0.6769155277861866  0.5973275291910686
  0.0051624796682273  0.8964870941994487  0.6497086694422823
  0.7443689886878108  0.6354604924152126  0.3937325144176663
  0.2914898176693132  0.4252510726078031  0.3706156606469854
  0.6911156260016229  0.0444769940777084  0.2681077861570533
  0.5650479475896958  0.4288739324263419  0.3730382251478280
  0.4291575559204080  0.2188398406671406  0.3639851717726499
  0.6809734665075182  0.4557183751884200  0.6284102678068659
  0.1586794031506708  0.6724865381504342  0.4767804769963410
  0.8382390191706866  0.2955179522736052  0.6484149146215028
  0.8493227174713635  0.1973133901426631  0.3417092706621096
  0.0966185051837551  0.1758020171152581  0.6299863791154972
  0.8178097510429984  0.3331422849981497  0.5364265135947075
  0.9351162324027523  0.1873507904472815  0.4796619568318721
  0.1593114888412154  0.2596003073164640  0.3294093579471903
  0.3022740016155044  0.2897891262245163  0.3348750708846542
  0.9278819964087538  0.8276497648855559  0.5234364304624813
  0.3578123966528966  0.8843165521191185  0.3192135544071361
  0.5488588782231233  0.8898508032995699  0.4560486517827553
  0.0507411342582542  0.4294956296300137  0.5605764105608503
  0.0389886363943175  0.4946154140656902  0.3677958191562511
  0.0087507088759940  0.0498871613762968  0.6235254708984477
  0.3047131352816084  0.6120251299581190  0.4835909068181234
  0.1839548760023793  0.9732503467131379  0.4541243000819098
  0.0102976121715045  0.2350768587861493  0.3455377943096237
  0.3669706846008152  0.0481985634960169  0.2813140736512718
  0.1247372222336211  0.9350499412912767  0.5453273701171102
  0.4640672511479534  0.8698491825108837  0.6420470139573617
  0.7011293375684663  0.9696518194878061  0.4033580618709546
  0.2985351339502342  0.0146240316417866  0.5244716124250208
  0.5437844272817485  0.3184442581300075  0.7389472539126977
  0.0526790317880165  0.7877091645922341  0.6815720662116620
  0.7535996323578902  0.5595141291459405  0.4455210511233051
  0.8866988082700568  0.3466776485385429  0.5909528564287521
  0.3580973592806260  0.2165125743974917  0.5854896516326348
  0.8329088823560364  0.9770030053934581  0.5687702497762989
  0.2593238993870353  0.7753140889680573  0.4365522873075819
  0.0187553726361105  0.9421212255106172  0.3222920155063569
  0.7144268286985832  0.8942504362272776  0.5135226643124023
  0.3846509453955778  0.5559975651474177  0.3780416019829260
  0.9366407185448524  0.7856475000324277  0.2881141376677416
  0.8187539094200369  0.2680876567031406  0.4492850810451647
  0.0677881815505653  0.7894569008185897  0.4626541374017419
  0.1536976287051636  0.6682286394813423  0.6206028663643890
  0.8681780519708751  0.3504337287978837  0.3681582010094606
  0.5094994801106116  0.7063099612610346  0.4632209552161037
  0.7861942040674772  0.5905642770894165  0.5763161105274099
  0.2001257333915246  0.1630493177468527  0.5472901077379032
  0.5429738366836803  0.2880610645375338  0.3305965273071445
  0.9517280671749742  0.5055216621901168  0.2901860708572618
  0.6505250382104171  0.6844170401548633  0.5291495235264858
  0.5294135680900127  0.2572734016197466  0.4158818132035472
  0.0002740104479457  0.6151400462064668  0.5620716080050907
  0.9612194543125877  0.3204471370989528  0.5096340336048030
  0.4685701091778387  0.2554947673974490  0.5041193784294804
  0.4138508254446656  0.4406732732738805  0.4977257900644405
  0.8872923907844359  0.6859987534717059  0.4127905227981154
  0.4156557813242814  0.7366022850467893  0.3902922154707066
  0.5824961269710667  0.1423157476594673  0.6735170602342552
  0.7742187360977710  0.5441310865827369  0.2778433244062639
  0.8630483000347607  0.8714842251556201  0.4508635086774615
  0.5888786082977091  0.2380482299799408  0.5693822602437885
  0.6490127672852077  0.2766353063626712  0.4946515022013531
  0.8092339742354903  0.1641464484201213  0.6169779777500806
  0.1819761083452558  0.8753462051215827  0.2853175082295419
  0.3381710316337449  0.0813652540922402  0.3558927136445633
  0.7103174402691897  0.5953784681396573  0.6496620743138281
  0.3060577551813048  0.6156981926982650  0.5837492727101310
  0.5187075289386548  0.5145457502156888  0.3176606498811882
  0.8886682312474298  0.9234966275770031  0.6866473244128106
  0.1912615074561587  0.7378700199933150  0.5307482544499648
  0.4655250164396055  0.0742759513780638  0.5313116106572746
  0.1277646601825101  0.3784377484097340  0.4825001420615165
  0.1903741065935987  0.9644378246905274  0.3715967573765140
  0.6475525650318620  0.7599784882942604  0.6527037770987804
  0.6680455327469477  0.0727144397396266  0.5577479206222610
  0.2204486339338336  0.5446929099821280  0.3467002726799711
  0.3947097804644198  0.6761240347533081  0.3026103983136005
  0.4444869146123183  0.4131898146498327  0.5790510404729419
  0.0140438607826157  0.9642777011906035  0.4092013147565749
  0.9711793465787225  0.0525474555457513  0.5195992404414621
  0.2443395131182735  0.4797165427888369  0.6296773565372531
  0.5723940117765158  0.9774057674543410  0.2852538556536939
  0.8021438987650923  0.2902653836744131  0.2951389806983603
  0.0140081199911518  0.6134765968846050  0.4666523689893726
  0.0162638208867147  0.2510468877771157  0.4314136530935744
  0.5130970928959981  0.7022676943860137  0.6026779618763805
  0.4256371289499373  0.3712705476273525  0.3784258681470683
  0.2584112041518491  0.1306721697377408  0.4694338637044822
  0.8405368702379439  0.1871051751085006  0.5323248052028158
  0.1701852845015747  0.2911434668708977  0.6053894261273279
  0.0213135460058651  0.2027297068997689  0.5762814810904721
  0.9011096050979150  0.6600036412661499  0.6301379916985010
  0.7488127967992400  0.8880974720156143  0.2722562177974719
  0.7599233905177417  0.7901481471452572  0.5866069749055369
  0.5193845671160237  0.1710542265772736  0.6374834817385020
  0.8425945029675352  0.6702801485716974  0.5091493216298107
  0.3140713741561897  0.8318846368405056  0.5809838434153629
  0.4066018099189447  0.0250445287829239  0.6772143562949775
  0.3412491977453072  0.2193175018827741  0.4153493833683163
  0.6149666946461894  0.1048655270418707  0.4570517046855127
  0.1456663069789274  0.5486743131272787  0.5141178044948093
  0.5124831526332764  0.4575909398733158  0.4333351169187866
  0.1324700325562857  0.3870802743342410  0.3022596227593309
  0.5423002714814700  0.9073353105025030  0.3683227106430695
  0.8340523452231857  0.5507144975656626  0.3558502578188725
  0.5961996017888550  0.5375448366599807  0.5915419247269733
  0.0082069379212372  0.6504871882873468  0.3320868299089083
  0.6966078640354230  0.3935970162724348  0.5679204978130128
  0.2232420552404518  0.7560955712269098  0.3506718926280668
  0.8820812592187287  0.4816566873345515  0.5331269869787618
  0.8502614552201458  0.0637989072978578  0.4596745624896594
  0.3566787838481908  0.0188922723411083  0.6052040913106743
  0.6826803466222445  0.4235227368800550  0.3232232853404699
  0.7394658644011627  0.1837649861258201  0.3779956492604386
  0.5178180727721120  0.0942391290200378  0.3670861889804976
  0.0042016030099356  0.8141356068048500  0.5973180145065531
  0.3852037965644802  0.3106855235351925  0.6539567154993612
  0.3973547719491232  0.9666828667737711  0.4250584773179626
  0.6109447826761548  0.5768686616515427  0.3790364644903632
  0.6466372788769047  0.1745364246176681  0.2531941958805207
  0.6866112761876849  0.7612660284715950  0.4111307126546019
  0.8248506826211582  0.8951634013438491  0.3563856825048370
  0.9518912735905380  0.4437558546142921  0.4384249414791271
  0.8586340873362196  0.8450892867022533  0.6574184049885561
  0.6006431532570220  0.4967171130608207  0.5090552245692583
  0.0394310809231343  0.5163527043371763  0.6298878637752854
  0.4239200655154153  0.5887994095845325  0.6519291201761293
  0.6172604494733533  0.6471919479728345  0.2474003604450172
  0.5569020355792252  0.4344452619418566  0.6657379594072870
  0.5860159002304819  0.7559133713725473  0.3255630250501251
  0.7613447216481032  0.7213506249852041  0.3327024635843890
  0.6820104838924677  0.3730266322623803  0.4048758228591458
  0.7647808435910017  0.4187991856260377  0.4902093323090538
  0.2910303094133870  0.4200821385720376  0.4323240837641898
  0.9117483829240148  0.6363533466618541  0.7051924516199835
  0.5293239942427936  0.8456078291962386  0.7107460349550960
  0.8257775389570434  0.0676533725294893  0.2961012466517349
  0.1567612066973212  0.1440900007804665  0.3977398105016132
  0.2180815239645059  0.1307815194593010  0.6560793058725561
  0.5534054568472005  0.8845016682753183  0.5558874345531150
  0.1599440034383045  0.3365334332406728  0.3858230123237464
  0.0879865190843756  0.1825499397589483  0.4910150119804476
  0.2385137947780783  0.4142964839838917  0.5533216531860715
  0.9926374513985828  0.2489767639424318  0.6634976578102058
  0.0536616936868228  0.7749323394302394  0.3794436533960230
  0.9134327498412945  0.0818067754453400  0.3696524473814019
  0.6392131160511002  0.9997730865074212  0.6284251028513139
  0.4530596779874241  0.6214053333693911  0.5343159144271814
  0.8237301448107498  0.4439271420929061  0.6456664749284687
  0.1578999924953400  0.6153962648240341  0.4179564014698096
  0.4070944947727013  0.8272231932476343  0.5076834623122837
  0.1543369345716606  0.5995184959374540  0.6963779557512368
  0.3265283098202040  0.7547465617122779  0.6703099797130826
  0.1541591986377862  0.6753504757276813  0.2849346514479947
  0.1496042302633140  0.1122151283359076  0.3130053829096272
  0.6830689646934216  0.2984806384235203  0.6452993903119084
  0.1691941160995073  0.9032816919678357  0.6319375938084275
  0.2894167459502587  0.2969812373178609  0.4902383743301379
  0.4897173437925108  0.6589635481222016  0.7195570328353574
  0.0713766639077648  0.5883184523341174  0.7655271052476881
  0.7468253736507885  0.7268595949127197  0.7299160059862535
  0.4147979522433243  0.1925702055083437  0.7042405795006668
  0.8409593339860229  0.2832068221580745  0.7076245471142886
  0.2713494679147633  0.9089338073659230  0.7056218490090919
  0.3352832888620474  0.5887405244825956  0.7208686410982411
  0.6196707053581205  0.0088022607419890  0.7257510054111994
  0.5095795336798006  0.4889707587937445  0.6691586205166767
  0.1149613515264901  0.5893573724374239  0.7417693361302005
  0.9194057890793460  0.6333673288160445  0.7348495100139359
  0.5287227153567101  0.2888648274943747  0.7650594305937251
  0.9899773613506273  0.2511041867432244  0.6933790449432439
  0.3017373829881198  0.7758262283609081  0.6973596633418885
  0.4089746259649255  0.6163968968525172  0.7220864757614959
  0.5679541507786549  0.8341069197821138  0.7352691087648348
 
  0.00000000E+00  0.00000000E+00  0.00000000E+00
  0.00000000E+00  0.00000000E+00  0.00000000E+00
  0.00000000E+00  0.00000000E+00  0.00000000E+00
  0.00000000E+00  0.00000000E+00  0.00000000E+00
  0.00000000E+00  0.00000000E+00  0.00000000E+00
  0.00000000E+00  0.00000000E+00  0.00000000E+00
  0.00000000E+00  0.00000000E+00  0.00000000E+00
  0.00000000E+00  0.00000000E+00  0.00000000E+00
  0.00000000E+00  0.00000000E+00  0.00000000E+00
  0.00000000E+00  0.00000000E+00  0.00000000E+00
  0.00000000E+00  0.00000000E+00  0.00000000E+00
  0.00000000E+00  0.00000000E+00  0.00000000E+00
  0.00000000E+00  0.00000000E+00  0.00000000E+00
  0.00000000E+00  0.00000000E+00  0.00000000E+00
  0.00000000E+00  0.00000000E+00  0.00000000E+00
  0.00000000E+00  0.00000000E+00  0.00000000E+00
  0.00000000E+00  0.00000000E+00  0.00000000E+00
  0.00000000E+00  0.00000000E+00  0.00000000E+00
  0.00000000E+00  0.00000000E+00  0.00000000E+00
  0.00000000E+00  0.00000000E+00  0.00000000E+00
  0.00000000E+00  0.00000000E+00  0.00000000E+00
  0.00000000E+00  0.00000000E+00  0.00000000E+00
  0.00000000E+00  0.00000000E+00  0.00000000E+00
  0.00000000E+00  0.00000000E+00  0.00000000E+00
  0.00000000E+00  0.00000000E+00  0.00000000E+00
  0.00000000E+00  0.00000000E+00  0.00000000E+00
  0.00000000E+00  0.00000000E+00  0.00000000E+00
  0.00000000E+00  0.00000000E+00  0.00000000E+00
  0.00000000E+00  0.00000000E+00  0.00000000E+00
  0.00000000E+00  0.00000000E+00  0.00000000E+00
  0.00000000E+00  0.00000000E+00  0.00000000E+00
  0.00000000E+00  0.00000000E+00  0.00000000E+00
  0.00000000E+00  0.00000000E+00  0.00000000E+00
  0.00000000E+00  0.00000000E+00  0.00000000E+00
  0.00000000E+00  0.00000000E+00  0.00000000E+00
  0.00000000E+00  0.00000000E+00  0.00000000E+00
  0.00000000E+00  0.00000000E+00  0.00000000E+00
  0.00000000E+00  0.00000000E+00  0.00000000E+00
  0.00000000E+00  0.00000000E+00  0.00000000E+00
  0.00000000E+00  0.00000000E+00  0.00000000E+00
  0.00000000E+00  0.00000000E+00  0.00000000E+00
  0.00000000E+00  0.00000000E+00  0.00000000E+00
  0.00000000E+00  0.00000000E+00  0.00000000E+00
  0.00000000E+00  0.00000000E+00  0.00000000E+00
  0.00000000E+00  0.00000000E+00  0.00000000E+00
  0.00000000E+00  0.00000000E+00  0.00000000E+00
  0.00000000E+00  0.00000000E+00  0.00000000E+00
  0.00000000E+00  0.00000000E+00  0.00000000E+00
  0.00000000E+00  0.00000000E+00  0.00000000E+00
  0.00000000E+00  0.00000000E+00  0.00000000E+00
  0.00000000E+00  0.00000000E+00  0.00000000E+00
  0.00000000E+00  0.00000000E+00  0.00000000E+00
  0.00000000E+00  0.00000000E+00  0.00000000E+00
  0.00000000E+00  0.00000000E+00  0.00000000E+00
  0.00000000E+00  0.00000000E+00  0.00000000E+00
  0.00000000E+00  0.00000000E+00  0.00000000E+00
  0.00000000E+00  0.00000000E+00  0.00000000E+00
  0.00000000E+00  0.00000000E+00  0.00000000E+00
  0.00000000E+00  0.00000000E+00  0.00000000E+00
  0.00000000E+00  0.00000000E+00  0.00000000E+00
  0.00000000E+00  0.00000000E+00  0.00000000E+00
  0.00000000E+00  0.00000000E+00  0.00000000E+00
  0.00000000E+00  0.00000000E+00  0.00000000E+00
  0.00000000E+00  0.00000000E+00  0.00000000E+00
  0.00000000E+00  0.00000000E+00  0.00000000E+00
  0.00000000E+00  0.00000000E+00  0.00000000E+00
  0.00000000E+00  0.00000000E+00  0.00000000E+00
  0.00000000E+00  0.00000000E+00  0.00000000E+00
  0.00000000E+00  0.00000000E+00  0.00000000E+00
  0.00000000E+00  0.00000000E+00  0.00000000E+00
  0.00000000E+00  0.00000000E+00  0.00000000E+00
  0.00000000E+00  0.00000000E+00  0.00000000E+00
  0.00000000E+00  0.00000000E+00  0.00000000E+00
  0.00000000E+00  0.00000000E+00  0.00000000E+00
  0.00000000E+00  0.00000000E+00  0.00000000E+00
  0.00000000E+00  0.00000000E+00  0.00000000E+00
  0.00000000E+00  0.00000000E+00  0.00000000E+00
  0.00000000E+00  0.00000000E+00  0.00000000E+00
  0.00000000E+00  0.00000000E+00  0.00000000E+00
  0.00000000E+00  0.00000000E+00  0.00000000E+00
  0.00000000E+00  0.00000000E+00  0.00000000E+00
  0.00000000E+00  0.00000000E+00  0.00000000E+00
  0.00000000E+00  0.00000000E+00  0.00000000E+00
  0.00000000E+00  0.00000000E+00  0.00000000E+00
  0.00000000E+00  0.00000000E+00  0.00000000E+00
  0.00000000E+00  0.00000000E+00  0.00000000E+00
  0.00000000E+00  0.00000000E+00  0.00000000E+00
  0.00000000E+00  0.00000000E+00  0.00000000E+00
  0.00000000E+00  0.00000000E+00  0.00000000E+00
  0.00000000E+00  0.00000000E+00  0.00000000E+00
  0.00000000E+00  0.00000000E+00  0.00000000E+00
  0.00000000E+00  0.00000000E+00  0.00000000E+00
  0.00000000E+00  0.00000000E+00  0.00000000E+00
  0.00000000E+00  0.00000000E+00  0.00000000E+00
  0.00000000E+00  0.00000000E+00  0.00000000E+00
  0.00000000E+00  0.00000000E+00  0.00000000E+00
  0.00000000E+00  0.00000000E+00  0.00000000E+00
  0.00000000E+00  0.00000000E+00  0.00000000E+00
  0.00000000E+00  0.00000000E+00  0.00000000E+00
  0.00000000E+00  0.00000000E+00  0.00000000E+00
  0.00000000E+00  0.00000000E+00  0.00000000E+00
  0.00000000E+00  0.00000000E+00  0.00000000E+00
  0.00000000E+00  0.00000000E+00  0.00000000E+00
  0.00000000E+00  0.00000000E+00  0.00000000E+00
  0.00000000E+00  0.00000000E+00  0.00000000E+00
  0.00000000E+00  0.00000000E+00  0.00000000E+00
  0.00000000E+00  0.00000000E+00  0.00000000E+00
  0.00000000E+00  0.00000000E+00  0.00000000E+00
  0.00000000E+00  0.00000000E+00  0.00000000E+00
  0.00000000E+00  0.00000000E+00  0.00000000E+00
  0.00000000E+00  0.00000000E+00  0.00000000E+00
  0.00000000E+00  0.00000000E+00  0.00000000E+00
  0.00000000E+00  0.00000000E+00  0.00000000E+00
  0.00000000E+00  0.00000000E+00  0.00000000E+00
  0.00000000E+00  0.00000000E+00  0.00000000E+00
  0.00000000E+00  0.00000000E+00  0.00000000E+00
  0.00000000E+00  0.00000000E+00  0.00000000E+00
  0.00000000E+00  0.00000000E+00  0.00000000E+00
  0.00000000E+00  0.00000000E+00  0.00000000E+00
  0.00000000E+00  0.00000000E+00  0.00000000E+00
  0.00000000E+00  0.00000000E+00  0.00000000E+00
  0.00000000E+00  0.00000000E+00  0.00000000E+00
  0.00000000E+00  0.00000000E+00  0.00000000E+00
  0.00000000E+00  0.00000000E+00  0.00000000E+00
  0.00000000E+00  0.00000000E+00  0.00000000E+00
  0.00000000E+00  0.00000000E+00  0.00000000E+00
  0.00000000E+00  0.00000000E+00  0.00000000E+00
  0.00000000E+00  0.00000000E+00  0.00000000E+00
  0.00000000E+00  0.00000000E+00  0.00000000E+00
  0.00000000E+00  0.00000000E+00  0.00000000E+00
  0.00000000E+00  0.00000000E+00  0.00000000E+00
  0.00000000E+00  0.00000000E+00  0.00000000E+00
  0.00000000E+00  0.00000000E+00  0.00000000E+00
  0.00000000E+00  0.00000000E+00  0.00000000E+00
  0.00000000E+00  0.00000000E+00  0.00000000E+00
  0.00000000E+00  0.00000000E+00  0.00000000E+00
  0.00000000E+00  0.00000000E+00  0.00000000E+00
  0.00000000E+00  0.00000000E+00  0.00000000E+00
  0.00000000E+00  0.00000000E+00  0.00000000E+00
  0.00000000E+00  0.00000000E+00  0.00000000E+00
  0.00000000E+00  0.00000000E+00  0.00000000E+00
  0.00000000E+00  0.00000000E+00  0.00000000E+00
  0.00000000E+00  0.00000000E+00  0.00000000E+00
  0.00000000E+00  0.00000000E+00  0.00000000E+00
  0.00000000E+00  0.00000000E+00  0.00000000E+00
  0.00000000E+00  0.00000000E+00  0.00000000E+00
  0.00000000E+00  0.00000000E+00  0.00000000E+00
  0.00000000E+00  0.00000000E+00  0.00000000E+00
  0.00000000E+00  0.00000000E+00  0.00000000E+00
  0.00000000E+00  0.00000000E+00  0.00000000E+00
  0.00000000E+00  0.00000000E+00  0.00000000E+00
  0.00000000E+00  0.00000000E+00  0.00000000E+00
  0.00000000E+00  0.00000000E+00  0.00000000E+00
  0.00000000E+00  0.00000000E+00  0.00000000E+00
  0.00000000E+00  0.00000000E+00  0.00000000E+00
  0.00000000E+00  0.00000000E+00  0.00000000E+00
  0.00000000E+00  0.00000000E+00  0.00000000E+00
  0.00000000E+00  0.00000000E+00  0.00000000E+00
  0.00000000E+00  0.00000000E+00  0.00000000E+00
  0.00000000E+00  0.00000000E+00  0.00000000E+00
  0.00000000E+00  0.00000000E+00  0.00000000E+00
  0.00000000E+00  0.00000000E+00  0.00000000E+00
  0.00000000E+00  0.00000000E+00  0.00000000E+00
  0.00000000E+00  0.00000000E+00  0.00000000E+00
  0.00000000E+00  0.00000000E+00  0.00000000E+00
  0.00000000E+00  0.00000000E+00  0.00000000E+00
  0.00000000E+00  0.00000000E+00  0.00000000E+00
  0.00000000E+00  0.00000000E+00  0.00000000E+00
  0.00000000E+00  0.00000000E+00  0.00000000E+00
  0.00000000E+00  0.00000000E+00  0.00000000E+00
  0.00000000E+00  0.00000000E+00  0.00000000E+00
  0.00000000E+00  0.00000000E+00  0.00000000E+00
  0.00000000E+00  0.00000000E+00  0.00000000E+00
  0.00000000E+00  0.00000000E+00  0.00000000E+00
  0.00000000E+00  0.00000000E+00  0.00000000E+00
  0.00000000E+00  0.00000000E+00  0.00000000E+00
  0.00000000E+00  0.00000000E+00  0.00000000E+00
  0.00000000E+00  0.00000000E+00  0.00000000E+00
  0.00000000E+00  0.00000000E+00  0.00000000E+00
  0.00000000E+00  0.00000000E+00  0.00000000E+00
  0.00000000E+00  0.00000000E+00  0.00000000E+00
  0.00000000E+00  0.00000000E+00  0.00000000E+00
  0.00000000E+00  0.00000000E+00  0.00000000E+00
  0.00000000E+00  0.00000000E+00  0.00000000E+00
  0.00000000E+00  0.00000000E+00  0.00000000E+00
  0.00000000E+00  0.00000000E+00  0.00000000E+00
  0.00000000E+00  0.00000000E+00  0.00000000E+00
  0.00000000E+00  0.00000000E+00  0.00000000E+00
  0.00000000E+00  0.00000000E+00  0.00000000E+00
  0.00000000E+00  0.00000000E+00  0.00000000E+00
  0.00000000E+00  0.00000000E+00  0.00000000E+00
  0.00000000E+00  0.00000000E+00  0.00000000E+00
  0.00000000E+00  0.00000000E+00  0.00000000E+00
  0.00000000E+00  0.00000000E+00  0.00000000E+00
  0.00000000E+00  0.00000000E+00  0.00000000E+00
  0.00000000E+00  0.00000000E+00  0.00000000E+00
  0.00000000E+00  0.00000000E+00  0.00000000E+00
  0.00000000E+00  0.00000000E+00  0.00000000E+00
  0.00000000E+00  0.00000000E+00  0.00000000E+00
  0.00000000E+00  0.00000000E+00  0.00000000E+00
  0.00000000E+00  0.00000000E+00  0.00000000E+00
  0.00000000E+00  0.00000000E+00  0.00000000E+00
  0.00000000E+00  0.00000000E+00  0.00000000E+00
  0.00000000E+00  0.00000000E+00  0.00000000E+00
  0.00000000E+00  0.00000000E+00  0.00000000E+00
  0.00000000E+00  0.00000000E+00  0.00000000E+00
  0.00000000E+00  0.00000000E+00  0.00000000E+00
  0.00000000E+00  0.00000000E+00  0.00000000E+00
  0.00000000E+00  0.00000000E+00  0.00000000E+00
  0.00000000E+00  0.00000000E+00  0.00000000E+00
  0.00000000E+00  0.00000000E+00  0.00000000E+00
  0.00000000E+00  0.00000000E+00  0.00000000E+00
  0.00000000E+00  0.00000000E+00  0.00000000E+00
  0.00000000E+00  0.00000000E+00  0.00000000E+00
  0.00000000E+00  0.00000000E+00  0.00000000E+00
  0.00000000E+00  0.00000000E+00  0.00000000E+00
  0.00000000E+00  0.00000000E+00  0.00000000E+00
  0.00000000E+00  0.00000000E+00  0.00000000E+00
  0.00000000E+00  0.00000000E+00  0.00000000E+00
  0.00000000E+00  0.00000000E+00  0.00000000E+00
  0.00000000E+00  0.00000000E+00  0.00000000E+00
  0.00000000E+00  0.00000000E+00  0.00000000E+00
  0.00000000E+00  0.00000000E+00  0.00000000E+00
  0.00000000E+00  0.00000000E+00  0.00000000E+00
  0.00000000E+00  0.00000000E+00  0.00000000E+00
  0.00000000E+00  0.00000000E+00  0.00000000E+00
  0.00000000E+00  0.00000000E+00  0.00000000E+00
  0.00000000E+00  0.00000000E+00  0.00000000E+00
  0.00000000E+00  0.00000000E+00  0.00000000E+00
  0.00000000E+00  0.00000000E+00  0.00000000E+00
  0.00000000E+00  0.00000000E+00  0.00000000E+00
  0.00000000E+00  0.00000000E+00  0.00000000E+00
