Hf  O  F  H                             
   1.00000000000000     
    13.7225301000000002    0.0000000000000000    0.0000000000000000
     0.0000000000000000   13.7225301000000002    0.0000000000000000
     0.0000000000000000    0.0000000000000000   32.7225301000000002
   Hf   O    F    H 
    72   144     5     5
Direct
  0.1694902072611068  0.8379798885989257  0.4130370912959783
  0.8512138162654715  0.9470443086782082  0.5068974315844971
  0.0297418326544503  0.6439252869111065  0.3926414462339025
  0.8965017396502518  0.6262526554135993  0.2925226831737968
  0.0931268186482225  0.7785161638173879  0.3100705500990462
  0.4004909713799295  0.9893158677958225  0.5720042179896404
  0.6568352771722724  0.4886178982906479  0.2756267340439962
  0.6536153927944719  0.7442696008513759  0.2646131382835883
  0.0141564179384475  0.6345656768936736  0.6740448535923269
  0.2924470494583980  0.0517156461933462  0.4104255354050105
  0.9387368292397572  0.7466458876400861  0.4713842950910987
  0.3110608922520897  0.7544781979997970  0.3057375609144717
  0.1211907569088812  0.5271742329375091  0.3160838704483057
  0.3343033029437730  0.1800832048304181  0.5192540578933323
  0.5089066848985401  0.0143163727075878  0.6711673950926653
  0.2761024919958689  0.6472050843673822  0.6546859176780190
  0.5417585112727273  0.3706364702536722  0.5371488506272080
  0.4778989095677010  0.9823898062732400  0.3304656070613691
  0.3062821177344545  0.6348565079653591  0.3980326345839525
  0.8966500926506926  0.7179711141542158  0.5692741095172054
  0.8597644973678134  0.4219649850004085  0.3210375371250163
  0.8974396443296896  0.1018275385335819  0.5810341589425856
  0.0338618765564375  0.3799195624760515  0.4052832456055611
  0.9071012167148299  0.4933048062706821  0.5944368193352024
  0.1307149403844405  0.5509989761320458  0.5877741615979906
  0.1595442284947759  0.2263432315468769  0.4504073415258223
  0.1033861106376626  0.2900585713063756  0.5536737412361878
  0.7359044807999365  0.5702817315026071  0.5149965699122920
  0.3326049129129552  0.1490029295642476  0.6460582332275594
  0.6335236010487592  0.1550478994206762  0.6180895519659141
  0.5117984559938218  0.2969870714327822  0.6822740994460018
  0.2589409573647680  0.4424183686632028  0.4866538500697110
  0.3008129378612559  0.3526370126316772  0.5996809010120618
  0.8677137857378565  0.9732800207845872  0.4068263786995543
  0.1625492175344271  0.0282998953780547  0.5010611875727872
  0.7810128602290138  0.7211474760685567  0.6643502188578422
  0.5078181745316158  0.6256041546613015  0.3408340121545204
  0.0173499723092934  0.4859221351305854  0.5037335706448235
  0.8880780953911289  0.8745018968964680  0.2947466581188871
  0.4455493976237229  0.8188579471584173  0.4283953934391404
  0.4253193892132353  0.3354260389696297  0.4431541348078004
  0.5921373850267605  0.8242086503687144  0.5106762418371823
  0.3663739973650837  0.7507508434049580  0.5543880238690091
  0.1448117192378580  0.8275401812451497  0.5802034711913637
  0.6821451064083582  0.2392612491222683  0.4398290949504651
  0.5716327004390397  0.0110375866258546  0.4213507922854268
  0.2930428822692124  0.9167728217399924  0.6492557798860208
  0.4763465792795160  0.5669444918852768  0.4795092983375221
  0.5857491518935337  0.1460682973298373  0.5245604604145796
  0.0694111972419834  0.0251360052707954  0.3588203312198011
  0.8111134625195793  0.4242460614310468  0.4416692535681592
  0.7082321509974709  0.9181027472219558  0.6029513840217199
  0.4983013985911992  0.7869599270137246  0.6669559624092649
  0.6764282753233734  0.8584643193120254  0.3610709717111211
  0.2734358017264018  0.9925639517737977  0.3071944853480036
  0.4283724320055877  0.5618491180062335  0.5950051094138182
  0.6836969496950832  0.2616240407945288  0.2970861619474309
  0.6326323699967572  0.6977122044901480  0.5930067165767698
  0.9905551996525286  0.8931863282107897  0.6489564592901897
  0.7547080632477597  0.6326744142268586  0.3937554887112001
  0.2984231883799104  0.4146112414963422  0.3636060265820881
  0.6795438571351958  0.9974739538068678  0.2588637245787340
  0.5795038625219920  0.4166955779438144  0.3759729618897142
  0.4437080555660499  0.2123305245290585  0.3614310113693942
  0.6660920656678531  0.4721778948362738  0.6259385335638323
  0.1767633980041362  0.6714148611409382  0.4818742737845768
  0.8139725158449963  0.3012169225449147  0.6481874972988285
  0.8918544424116550  0.2219531620413130  0.3697175551766252
  0.0754655470819220  0.1763691552498929  0.6399870397235218
  0.7897836273936164  0.3335397997172023  0.5349374980659656
  0.9322413877213362  0.1758378008024526  0.4836812078232532
  0.1656927113003679  0.2408469309755408  0.3395433169680436
  0.3120377568375867  0.2671647887901205  0.3364278013446470
  0.9279301065998676  0.8277024287417887  0.5236716606221978
  0.3723868075962986  0.8797009212755899  0.3280135782719357
  0.5537245574265165  0.8976278010731121  0.4588752591650887
  0.0514985169916707  0.4303804069598778  0.5627627710331395
  0.0442675291549797  0.5033032789392031  0.3721671706169705
  0.9944171541380931  0.0498138440004979  0.6301882633564321
  0.3042221746685560  0.5922214948878282  0.4623323305076861
  0.2034882994379651  0.9565107470753097  0.4476059982112097
  0.0233583133603316  0.2832208615976898  0.3449112830426058
  0.4009810385159813  0.0218986500872390  0.2798607265740136
  0.1197483274249225  0.9291320992366553  0.5410615098052756
  0.4466190680183802  0.9104814184819867  0.6294691403085613
  0.7074324159076264  0.9712171119907886  0.4007151471189142
  0.2902348718496245  0.0345961970466053  0.5313178891936711
  0.5180731560282547  0.3346203379362498  0.7388092182844390
  0.0148988641089386  0.7785101486322610  0.6829703516324019
  0.7605595517402700  0.5670310766113394  0.4463913481371648
  0.8698583883205018  0.3444211603505034  0.5896666589878025
  0.3316054111130374  0.2123175000568661  0.5785581857748402
  0.8269274930683503  0.9727066296022762  0.5722231486234143
  0.3007568279134734  0.7813305771656044  0.4370690608424602
  0.0219352464941995  0.9218205749686745  0.3136926204056203
  0.7154273333763524  0.9015692798110316  0.5058177537705280
  0.3927187650529261  0.5433245626867188  0.3607491381547983
  0.9749915798502407  0.7601705892221180  0.2731649218943392
  0.8206569397345067  0.2839758114991830  0.4659948062855809
  0.0847314219686412  0.7924256099412732  0.4615585990519434
  0.1367256349808688  0.6776474312996572  0.6206411448430154
  0.8823506327569870  0.3829339812598448  0.3807130905360759
  0.4987895167068455  0.7194093196229834  0.4700972373143315
  0.7812322672837985  0.5756051259676391  0.5737617557469843
  0.1756510772794322  0.1861322836552981  0.5208936895740691
  0.5720745823361584  0.2769002247748358  0.3333734262307559
  0.9792224491285019  0.4929171253067793  0.2920022014854306
  0.6456377063251330  0.6900717464073354  0.5280642857229692
  0.5507459337758458  0.2738629705667740  0.4153644659209823
  0.9960623706471963  0.6044886156768668  0.5573274537793883
  0.0045035319847778  0.2936165973538112  0.5066613134860516
  0.4682982836091356  0.2613483314753668  0.5010992942061750
  0.4086415042863836  0.4360356997131571  0.4954574809998330
  0.9012408039356303  0.6856837934260206  0.4138736588330569
  0.4445851552955278  0.7045075560825224  0.3888194201659842
  0.5689278308041499  0.1610074041877050  0.6755401059860990
  0.8035934072723533  0.5196361114055079  0.2718885007686102
  0.8720490760859169  0.8691389677756894  0.4496011980238158
  0.5678886677280575  0.2395696954341203  0.5731760639583051
  0.6547179558043031  0.2739736270581608  0.5040335402445543
  0.7878487075739872  0.1678714736230015  0.6190184927853629
  0.2112947742687291  0.8607837608640593  0.2853884617259514
  0.3552136209418044  0.0721527406236255  0.3510530757475935
  0.6893375070944144  0.6167820931737082  0.6441472456958094
  0.3041712342819306  0.6522848344549010  0.5938161557393125
  0.5443225919816433  0.4944445205452218  0.3142312609008781
  0.8688444130734841  0.9346376048701540  0.6814482609411343
  0.2205310353034231  0.7478835360609130  0.5313054645160881
  0.4566768085115459  0.0834459426715181  0.5283192825300987
  0.1226013856583746  0.3993355388458991  0.4628518817511746
  0.2052723634002606  0.9514031304579005  0.3673432279328390
  0.6388362698935801  0.7964437898734217  0.6439821014631285
  0.6502227855741682  0.0633906165581782  0.5666054983875044
  0.2198340456828222  0.5457051018230894  0.3607253497999813
  0.4343193508290006  0.6877253360257340  0.2941170535753789
  0.4336019371464962  0.4158400929674201  0.5773676127895270
  0.0188048819950714  0.9477239072268401  0.4040063322263824
  0.9523019819095505  0.0559760873129768  0.5250922347054335
  0.2441791629712144  0.4849763262257940  0.6156696648740934
  0.6231214646592039  0.9548506567699450  0.3111287280988035
  0.8314260594755326  0.2726585966647573  0.3131945457725290
  0.0327708812629026  0.6200296227903253  0.4730175079074539
  0.9823907870171943  0.2445475437756306  0.4227982079083135
  0.4805815649605863  0.7159920843369129  0.6018215982479992
  0.4361133450565138  0.3618713580518625  0.3738926291043957
  0.2615877757214606  0.1210671400023198  0.4630024863274631
  0.8344527700198108  0.1908628685018138  0.5352270231429732
  0.1650671273494366  0.2844198371153875  0.6124683249914379
  0.0165404099681785  0.1940942366829381  0.5830200472548859
  0.9020342711565343  0.6541288444350306  0.6276619621459733
  0.6364369512737250  0.8700944827550565  0.2342073272738475
  0.7714209962488680  0.7704893195966582  0.5939291090769477
  0.4692852175469309  0.0906818725140113  0.6158804833199383
  0.8468854102981380  0.6694962685761022  0.5081310253949987
  0.2957942814497800  0.8566433744315165  0.5889211970740704
  0.3588503244237143  0.0233118693735500  0.6831238311958050
  0.3791875573734421  0.1941487351597201  0.4143625896823082
  0.6186765093362172  0.1106907471924780  0.4620203111260930
  0.1665584249844196  0.5469020679124263  0.5190798220941331
  0.5113889149491959  0.4672926176715722  0.4308893564951220
  0.1826983825762461  0.3938242177472721  0.3159319292036296
  0.5358033833194166  0.8879423501455980  0.3783918553860002
  0.8393809452915777  0.5804460616405732  0.3455730278888317
  0.5747703397240345  0.5554893159853852  0.5908950498681725
  0.0210101812942437  0.6481335343304886  0.3288274557675953
  0.6760227984591796  0.3965835925367567  0.5693539605330579
  0.2551322324716383  0.7448464374314520  0.3603645406943726
  0.8837175336526243  0.4616185093265465  0.5286217661202495
  0.8541166616171126  0.0572524444606392  0.4563731891433820
  0.2903149880960066  0.0325949976072580  0.6102482893811011
  0.7116243782017329  0.4143559657410567  0.3254971159522261
  0.7657854772075178  0.1863737092567502  0.3948281481475098
  0.5353550577947468  0.0878158700858826  0.3686689032998509
  0.9977242546916294  0.8155024532762770  0.5956078110021227
  0.3856858218353408  0.3001369665870861  0.6464119678332866
  0.4106622398404929  0.9726741982401601  0.4228851649752147
  0.6274690040401171  0.5679994121994602  0.3766968018709267
  0.6626537982437215  0.1418145836035803  0.2633308071855563
  0.7001812641962165  0.7597934997992071  0.4022761013649906
  0.8267748429939420  0.8833106830381674  0.3494656670160699
  0.9531526810728628  0.4587950902577557  0.4470940142350022
  0.8316144063507135  0.8706219548197438  0.6480734950823300
  0.5820270181365790  0.5077527749798368  0.5112347370479804
  0.0290558148447302  0.5149350063198891  0.6315677654083496
  0.3959894452994478  0.5679310497153687  0.6550727390480271
  0.6297193067672853  0.6142882160848853  0.2439557982096653
  0.5477765424292138  0.4441849227507350  0.6648085933528379
  0.6158358662761377  0.7426994322164189  0.3233033485769876
  0.7952931244841760  0.7468966081400432  0.2815749553667802
  0.6979704005560352  0.3767695149434588  0.4091225688882446
  0.7357764602679258  0.4319552567422564  0.4930123459606173
  0.3098783494095135  0.4293928331103511  0.4242898961885388
  0.8707017574714302  0.6336816013702561  0.6998232843755580
  0.5201244316345043  0.8952837964941869  0.7040106233233560
  0.8184398911601674  0.9724708047833680  0.2627605784777303
  0.1597301867646740  0.1383364493069879  0.3905232066197186
  0.1957881178864943  0.1416193979563867  0.6675757673371188
  0.6074674963558755  0.8495125069965083  0.5708181093532184
  0.1735059657095251  0.3214692557298153  0.3940532322191447
  0.0669523957925947  0.1167072096070654  0.4669617667610819
  0.2359878552147774  0.3722194867600726  0.5426042440025001
  0.9683943376336419  0.2580077747238849  0.6673825947691002
  0.0681666290326588  0.7816102023784575  0.3711774554833643
  0.9294827143109070  0.0806197421262323  0.3625998044082315
  0.6453035349812407  0.0090548977209275  0.6426984141312261
  0.4155583329311021  0.6175883339560544  0.5340296595588082
  0.8076703889372385  0.4517014893217667  0.6430693001254152
  0.1629608501682943  0.6614411723818165  0.4183287772541973
  0.4456178165510488  0.8653428456267482  0.5334517867867726
  0.1695520396822674  0.6166398257642308  0.6955691599983224
  0.3347489703646772  0.7772012989194312  0.6697945731669139
  0.1857369498959704  0.6608873700708131  0.2907110356158000
  0.1625259808158718  0.0994623117546213  0.3118056410756154
  0.6630195766007906  0.3086966011962157  0.6456600207188017
  0.1463584056724326  0.8963132107790376  0.6376934328579342
  0.2893181426704533  0.2939310949560406  0.4741762041871013
  0.5127141911365415  0.6796511159936529  0.7043699300495820
  0.0212364605924055  0.5527477631792440  0.7246597055863860
  0.7363656594903405  0.7614129820158013  0.7174018073509957
  0.4012260019081337  0.1948960049524436  0.7032377204789050
  0.8146175346387180  0.2943675136536684  0.7078386826711426
  0.4996401125254944  0.4966158936802522  0.6713302725794490
  0.1563988756147437  0.5760884006595756  0.7195075045113505
  0.8643851156108210  0.6282271383938177  0.7293387006090276
  0.4905211761840453  0.3051318296829816  0.7630977853204947
  0.9606227734011367  0.2682208296315693  0.6968284385375799
 
  0.00000000E+00  0.00000000E+00  0.00000000E+00
  0.00000000E+00  0.00000000E+00  0.00000000E+00
  0.00000000E+00  0.00000000E+00  0.00000000E+00
  0.00000000E+00  0.00000000E+00  0.00000000E+00
  0.00000000E+00  0.00000000E+00  0.00000000E+00
  0.00000000E+00  0.00000000E+00  0.00000000E+00
  0.00000000E+00  0.00000000E+00  0.00000000E+00
  0.00000000E+00  0.00000000E+00  0.00000000E+00
  0.00000000E+00  0.00000000E+00  0.00000000E+00
  0.00000000E+00  0.00000000E+00  0.00000000E+00
  0.00000000E+00  0.00000000E+00  0.00000000E+00
  0.00000000E+00  0.00000000E+00  0.00000000E+00
  0.00000000E+00  0.00000000E+00  0.00000000E+00
  0.00000000E+00  0.00000000E+00  0.00000000E+00
  0.00000000E+00  0.00000000E+00  0.00000000E+00
  0.00000000E+00  0.00000000E+00  0.00000000E+00
  0.00000000E+00  0.00000000E+00  0.00000000E+00
  0.00000000E+00  0.00000000E+00  0.00000000E+00
  0.00000000E+00  0.00000000E+00  0.00000000E+00
  0.00000000E+00  0.00000000E+00  0.00000000E+00
  0.00000000E+00  0.00000000E+00  0.00000000E+00
  0.00000000E+00  0.00000000E+00  0.00000000E+00
  0.00000000E+00  0.00000000E+00  0.00000000E+00
  0.00000000E+00  0.00000000E+00  0.00000000E+00
  0.00000000E+00  0.00000000E+00  0.00000000E+00
  0.00000000E+00  0.00000000E+00  0.00000000E+00
  0.00000000E+00  0.00000000E+00  0.00000000E+00
  0.00000000E+00  0.00000000E+00  0.00000000E+00
  0.00000000E+00  0.00000000E+00  0.00000000E+00
  0.00000000E+00  0.00000000E+00  0.00000000E+00
  0.00000000E+00  0.00000000E+00  0.00000000E+00
  0.00000000E+00  0.00000000E+00  0.00000000E+00
  0.00000000E+00  0.00000000E+00  0.00000000E+00
  0.00000000E+00  0.00000000E+00  0.00000000E+00
  0.00000000E+00  0.00000000E+00  0.00000000E+00
  0.00000000E+00  0.00000000E+00  0.00000000E+00
  0.00000000E+00  0.00000000E+00  0.00000000E+00
  0.00000000E+00  0.00000000E+00  0.00000000E+00
  0.00000000E+00  0.00000000E+00  0.00000000E+00
  0.00000000E+00  0.00000000E+00  0.00000000E+00
  0.00000000E+00  0.00000000E+00  0.00000000E+00
  0.00000000E+00  0.00000000E+00  0.00000000E+00
  0.00000000E+00  0.00000000E+00  0.00000000E+00
  0.00000000E+00  0.00000000E+00  0.00000000E+00
  0.00000000E+00  0.00000000E+00  0.00000000E+00
  0.00000000E+00  0.00000000E+00  0.00000000E+00
  0.00000000E+00  0.00000000E+00  0.00000000E+00
  0.00000000E+00  0.00000000E+00  0.00000000E+00
  0.00000000E+00  0.00000000E+00  0.00000000E+00
  0.00000000E+00  0.00000000E+00  0.00000000E+00
  0.00000000E+00  0.00000000E+00  0.00000000E+00
  0.00000000E+00  0.00000000E+00  0.00000000E+00
  0.00000000E+00  0.00000000E+00  0.00000000E+00
  0.00000000E+00  0.00000000E+00  0.00000000E+00
  0.00000000E+00  0.00000000E+00  0.00000000E+00
  0.00000000E+00  0.00000000E+00  0.00000000E+00
  0.00000000E+00  0.00000000E+00  0.00000000E+00
  0.00000000E+00  0.00000000E+00  0.00000000E+00
  0.00000000E+00  0.00000000E+00  0.00000000E+00
  0.00000000E+00  0.00000000E+00  0.00000000E+00
  0.00000000E+00  0.00000000E+00  0.00000000E+00
  0.00000000E+00  0.00000000E+00  0.00000000E+00
  0.00000000E+00  0.00000000E+00  0.00000000E+00
  0.00000000E+00  0.00000000E+00  0.00000000E+00
  0.00000000E+00  0.00000000E+00  0.00000000E+00
  0.00000000E+00  0.00000000E+00  0.00000000E+00
  0.00000000E+00  0.00000000E+00  0.00000000E+00
  0.00000000E+00  0.00000000E+00  0.00000000E+00
  0.00000000E+00  0.00000000E+00  0.00000000E+00
  0.00000000E+00  0.00000000E+00  0.00000000E+00
  0.00000000E+00  0.00000000E+00  0.00000000E+00
  0.00000000E+00  0.00000000E+00  0.00000000E+00
  0.00000000E+00  0.00000000E+00  0.00000000E+00
  0.00000000E+00  0.00000000E+00  0.00000000E+00
  0.00000000E+00  0.00000000E+00  0.00000000E+00
  0.00000000E+00  0.00000000E+00  0.00000000E+00
  0.00000000E+00  0.00000000E+00  0.00000000E+00
  0.00000000E+00  0.00000000E+00  0.00000000E+00
  0.00000000E+00  0.00000000E+00  0.00000000E+00
  0.00000000E+00  0.00000000E+00  0.00000000E+00
  0.00000000E+00  0.00000000E+00  0.00000000E+00
  0.00000000E+00  0.00000000E+00  0.00000000E+00
  0.00000000E+00  0.00000000E+00  0.00000000E+00
  0.00000000E+00  0.00000000E+00  0.00000000E+00
  0.00000000E+00  0.00000000E+00  0.00000000E+00
  0.00000000E+00  0.00000000E+00  0.00000000E+00
  0.00000000E+00  0.00000000E+00  0.00000000E+00
  0.00000000E+00  0.00000000E+00  0.00000000E+00
  0.00000000E+00  0.00000000E+00  0.00000000E+00
  0.00000000E+00  0.00000000E+00  0.00000000E+00
  0.00000000E+00  0.00000000E+00  0.00000000E+00
  0.00000000E+00  0.00000000E+00  0.00000000E+00
  0.00000000E+00  0.00000000E+00  0.00000000E+00
  0.00000000E+00  0.00000000E+00  0.00000000E+00
  0.00000000E+00  0.00000000E+00  0.00000000E+00
  0.00000000E+00  0.00000000E+00  0.00000000E+00
  0.00000000E+00  0.00000000E+00  0.00000000E+00
  0.00000000E+00  0.00000000E+00  0.00000000E+00
  0.00000000E+00  0.00000000E+00  0.00000000E+00
  0.00000000E+00  0.00000000E+00  0.00000000E+00
  0.00000000E+00  0.00000000E+00  0.00000000E+00
  0.00000000E+00  0.00000000E+00  0.00000000E+00
  0.00000000E+00  0.00000000E+00  0.00000000E+00
  0.00000000E+00  0.00000000E+00  0.00000000E+00
  0.00000000E+00  0.00000000E+00  0.00000000E+00
  0.00000000E+00  0.00000000E+00  0.00000000E+00
  0.00000000E+00  0.00000000E+00  0.00000000E+00
  0.00000000E+00  0.00000000E+00  0.00000000E+00
  0.00000000E+00  0.00000000E+00  0.00000000E+00
  0.00000000E+00  0.00000000E+00  0.00000000E+00
  0.00000000E+00  0.00000000E+00  0.00000000E+00
  0.00000000E+00  0.00000000E+00  0.00000000E+00
  0.00000000E+00  0.00000000E+00  0.00000000E+00
  0.00000000E+00  0.00000000E+00  0.00000000E+00
  0.00000000E+00  0.00000000E+00  0.00000000E+00
  0.00000000E+00  0.00000000E+00  0.00000000E+00
  0.00000000E+00  0.00000000E+00  0.00000000E+00
  0.00000000E+00  0.00000000E+00  0.00000000E+00
  0.00000000E+00  0.00000000E+00  0.00000000E+00
  0.00000000E+00  0.00000000E+00  0.00000000E+00
  0.00000000E+00  0.00000000E+00  0.00000000E+00
  0.00000000E+00  0.00000000E+00  0.00000000E+00
  0.00000000E+00  0.00000000E+00  0.00000000E+00
  0.00000000E+00  0.00000000E+00  0.00000000E+00
  0.00000000E+00  0.00000000E+00  0.00000000E+00
  0.00000000E+00  0.00000000E+00  0.00000000E+00
  0.00000000E+00  0.00000000E+00  0.00000000E+00
  0.00000000E+00  0.00000000E+00  0.00000000E+00
  0.00000000E+00  0.00000000E+00  0.00000000E+00
  0.00000000E+00  0.00000000E+00  0.00000000E+00
  0.00000000E+00  0.00000000E+00  0.00000000E+00
  0.00000000E+00  0.00000000E+00  0.00000000E+00
  0.00000000E+00  0.00000000E+00  0.00000000E+00
  0.00000000E+00  0.00000000E+00  0.00000000E+00
  0.00000000E+00  0.00000000E+00  0.00000000E+00
  0.00000000E+00  0.00000000E+00  0.00000000E+00
  0.00000000E+00  0.00000000E+00  0.00000000E+00
  0.00000000E+00  0.00000000E+00  0.00000000E+00
  0.00000000E+00  0.00000000E+00  0.00000000E+00
  0.00000000E+00  0.00000000E+00  0.00000000E+00
  0.00000000E+00  0.00000000E+00  0.00000000E+00
  0.00000000E+00  0.00000000E+00  0.00000000E+00
  0.00000000E+00  0.00000000E+00  0.00000000E+00
  0.00000000E+00  0.00000000E+00  0.00000000E+00
  0.00000000E+00  0.00000000E+00  0.00000000E+00
  0.00000000E+00  0.00000000E+00  0.00000000E+00
  0.00000000E+00  0.00000000E+00  0.00000000E+00
  0.00000000E+00  0.00000000E+00  0.00000000E+00
  0.00000000E+00  0.00000000E+00  0.00000000E+00
  0.00000000E+00  0.00000000E+00  0.00000000E+00
  0.00000000E+00  0.00000000E+00  0.00000000E+00
  0.00000000E+00  0.00000000E+00  0.00000000E+00
  0.00000000E+00  0.00000000E+00  0.00000000E+00
  0.00000000E+00  0.00000000E+00  0.00000000E+00
  0.00000000E+00  0.00000000E+00  0.00000000E+00
  0.00000000E+00  0.00000000E+00  0.00000000E+00
  0.00000000E+00  0.00000000E+00  0.00000000E+00
  0.00000000E+00  0.00000000E+00  0.00000000E+00
  0.00000000E+00  0.00000000E+00  0.00000000E+00
  0.00000000E+00  0.00000000E+00  0.00000000E+00
  0.00000000E+00  0.00000000E+00  0.00000000E+00
  0.00000000E+00  0.00000000E+00  0.00000000E+00
  0.00000000E+00  0.00000000E+00  0.00000000E+00
  0.00000000E+00  0.00000000E+00  0.00000000E+00
  0.00000000E+00  0.00000000E+00  0.00000000E+00
  0.00000000E+00  0.00000000E+00  0.00000000E+00
  0.00000000E+00  0.00000000E+00  0.00000000E+00
  0.00000000E+00  0.00000000E+00  0.00000000E+00
  0.00000000E+00  0.00000000E+00  0.00000000E+00
  0.00000000E+00  0.00000000E+00  0.00000000E+00
  0.00000000E+00  0.00000000E+00  0.00000000E+00
  0.00000000E+00  0.00000000E+00  0.00000000E+00
  0.00000000E+00  0.00000000E+00  0.00000000E+00
  0.00000000E+00  0.00000000E+00  0.00000000E+00
  0.00000000E+00  0.00000000E+00  0.00000000E+00
  0.00000000E+00  0.00000000E+00  0.00000000E+00
  0.00000000E+00  0.00000000E+00  0.00000000E+00
  0.00000000E+00  0.00000000E+00  0.00000000E+00
  0.00000000E+00  0.00000000E+00  0.00000000E+00
  0.00000000E+00  0.00000000E+00  0.00000000E+00
  0.00000000E+00  0.00000000E+00  0.00000000E+00
  0.00000000E+00  0.00000000E+00  0.00000000E+00
  0.00000000E+00  0.00000000E+00  0.00000000E+00
  0.00000000E+00  0.00000000E+00  0.00000000E+00
  0.00000000E+00  0.00000000E+00  0.00000000E+00
  0.00000000E+00  0.00000000E+00  0.00000000E+00
  0.00000000E+00  0.00000000E+00  0.00000000E+00
  0.00000000E+00  0.00000000E+00  0.00000000E+00
  0.00000000E+00  0.00000000E+00  0.00000000E+00
  0.00000000E+00  0.00000000E+00  0.00000000E+00
  0.00000000E+00  0.00000000E+00  0.00000000E+00
  0.00000000E+00  0.00000000E+00  0.00000000E+00
  0.00000000E+00  0.00000000E+00  0.00000000E+00
  0.00000000E+00  0.00000000E+00  0.00000000E+00
  0.00000000E+00  0.00000000E+00  0.00000000E+00
  0.00000000E+00  0.00000000E+00  0.00000000E+00
  0.00000000E+00  0.00000000E+00  0.00000000E+00
  0.00000000E+00  0.00000000E+00  0.00000000E+00
  0.00000000E+00  0.00000000E+00  0.00000000E+00
  0.00000000E+00  0.00000000E+00  0.00000000E+00
  0.00000000E+00  0.00000000E+00  0.00000000E+00
  0.00000000E+00  0.00000000E+00  0.00000000E+00
  0.00000000E+00  0.00000000E+00  0.00000000E+00
  0.00000000E+00  0.00000000E+00  0.00000000E+00
  0.00000000E+00  0.00000000E+00  0.00000000E+00
  0.00000000E+00  0.00000000E+00  0.00000000E+00
  0.00000000E+00  0.00000000E+00  0.00000000E+00
  0.00000000E+00  0.00000000E+00  0.00000000E+00
  0.00000000E+00  0.00000000E+00  0.00000000E+00
  0.00000000E+00  0.00000000E+00  0.00000000E+00
  0.00000000E+00  0.00000000E+00  0.00000000E+00
  0.00000000E+00  0.00000000E+00  0.00000000E+00
  0.00000000E+00  0.00000000E+00  0.00000000E+00
  0.00000000E+00  0.00000000E+00  0.00000000E+00
  0.00000000E+00  0.00000000E+00  0.00000000E+00
  0.00000000E+00  0.00000000E+00  0.00000000E+00
  0.00000000E+00  0.00000000E+00  0.00000000E+00
  0.00000000E+00  0.00000000E+00  0.00000000E+00
  0.00000000E+00  0.00000000E+00  0.00000000E+00
  0.00000000E+00  0.00000000E+00  0.00000000E+00
  0.00000000E+00  0.00000000E+00  0.00000000E+00
  0.00000000E+00  0.00000000E+00  0.00000000E+00
  0.00000000E+00  0.00000000E+00  0.00000000E+00
  0.00000000E+00  0.00000000E+00  0.00000000E+00
  0.00000000E+00  0.00000000E+00  0.00000000E+00
  0.00000000E+00  0.00000000E+00  0.00000000E+00
