Hf  O  F                                
   1.00000000000000     
    13.7225301000000002    0.0000000000000000    0.0000000000000000
     0.0000000000000000   13.7225301000000002    0.0000000000000000
     0.0000000000000000    0.0000000000000000   32.7225301000000002
   Hf   O    F 
    72   131    26
Selective dynamics
Direct
  0.1362248827505326  0.8674318530115244  0.4166419926673512   F   F   F
  0.8658330698223696  0.9496347396477739  0.5074735845406210   T   T   T
  0.0225942766102776  0.6270292756935447  0.3945197508585068   F   F   F
  0.8738375187958241  0.6422807334719352  0.3030733668587473   F   F   F
  0.0747600824243548  0.7867743823649178  0.3146695938578574   F   F   F
  0.4049995476666329  0.9494569413885244  0.5469181181928235   T   T   T
  0.6294603519176576  0.5148197354520079  0.2774755992424502   F   F   F
  0.6797862832746944  0.7488718431475334  0.2786741083629067   F   F   F
  0.0192156028034106  0.6261625510119645  0.6724226922536652   T   T   T
  0.2828592525475813  0.0580976344398607  0.4113559499634150   F   F   F
  0.9275631570040517  0.7410291544037477  0.4677958891650107   F   F   F
  0.2859290233621437  0.7625462908132050  0.2930066613476754   F   F   F
  0.1017141309847602  0.5287797796419227  0.3095085958343233   F   F   F
  0.3397603745661126  0.1757884944174322  0.5209222915798251   T   T   T
  0.5982526164666060  0.9605426089634510  0.6864677514147555   T   T   T
  0.2612681636408539  0.5893596078083292  0.6748267143661459   T   T   T
  0.5795926337513372  0.3979003551016368  0.5605333559565490   T   T   T
  0.4648562957920248  0.9817891360786390  0.3313698961765255   F   F   F
  0.2837133940148888  0.6602598701606155  0.3859683453061749   F   F   F
  0.9020167161492234  0.7233963927337917  0.5723994931871053   T   T   T
  0.8372982804186861  0.4310611117959056  0.3153643524806000   F   F   F
  0.9070324036891732  0.1023507572249596  0.5826097508223387   T   T   T
  0.0116742983313145  0.3565300287031121  0.3900626623074430   F   F   F
  0.9116688050215703  0.4949160288609861  0.5937157363869451   T   T   T
  0.1428308418032545  0.5482286500717263  0.5879436390656064   T   T   T
  0.1774465507518670  0.2491217791990508  0.4456301665570663   F   F   F
  0.1033655873063024  0.2949873904169857  0.5564837987946509   T   T   T
  0.7522335640898995  0.5535217125512643  0.5161324640274849   T   T   T
  0.3381771651680303  0.1405023447862876  0.6362436425095068   T   T   T
  0.6415694322984746  0.1403301514635809  0.6127745713139825   T   T   T
  0.4774836122725812  0.2877291925864109  0.6959071221612373   T   T   T
  0.2618010464962168  0.4474550808111776  0.4958821829450196   T   T   T
  0.3007110284618698  0.3567361872114437  0.6076993450497914   T   T   T
  0.8615430910852098  0.9811718761377790  0.4082549417030705   F   F   F
  0.1539571720469759  0.0449231969138848  0.5076705613884792   T   T   T
  0.7991100772981161  0.7494858941040384  0.6776689987976559   T   T   T
  0.4916387852928210  0.6434499087635217  0.3469339165609711   F   F   F
  0.0182077231530974  0.4687279162042179  0.4986230758038209   T   T   T
  0.8796802193484083  0.9226061635261118  0.3024546211802672   F   F   F
  0.4156650669205106  0.8177279841074565  0.4417846330149331   F   F   F
  0.4266156591101478  0.3343500072301211  0.4471744420722814   F   F   F
  0.6029394924730150  0.7993005792389396  0.5020064492786280   T   T   T
  0.3378391907593835  0.7104975997042834  0.5369475492845113   T   T   T
  0.1445191693686263  0.8273110081916523  0.5792023339163354   T   T   T
  0.6818912062918159  0.2334388454933389  0.4324865174560131   F   F   F
  0.5664560234058058  0.0042391841142546  0.4184997825385963   F   F   F
  0.3268739840188082  0.8966523234995619  0.6390961180406654   T   T   T
  0.4898522625148994  0.5578302688634803  0.4826222338841474   T   T   T
  0.5832079243210239  0.1641696945523132  0.5169543344377014   T   T   T
  0.0684112772452750  0.0514097151278179  0.3619893468145889   F   F   F
  0.8103008770948463  0.4204843201528377  0.4319572399929896   F   F   F
  0.6864372293446959  0.9262782560246205  0.5738889053732628   T   T   T
  0.4657740969683555  0.7160532512172083  0.6768703609360455   T   T   T
  0.6844265679267849  0.8447563575640800  0.3656604035613711   F   F   F
  0.2498074010011564  0.0024820945120538  0.2980987301286220   F   F   F
  0.4416951029238162  0.5671661977348799  0.5983005081057626   T   T   T
  0.6548018632275756  0.2862691907538348  0.2891972673552416   F   F   F
  0.6622451331209519  0.6681163129527318  0.5957699343588171   T   T   T
  0.0108497473533456  0.9060220448901890  0.6544025587210908   T   T   T
  0.7470072027489891  0.6345958651175110  0.3927949526715580   F   F   F
  0.2935567867715463  0.4244947281288631  0.3702984883267320   F   F   F
  0.6885244107495865  0.0480210126884515  0.2705796756096035   F   F   F
  0.5688479814933984  0.4245065994561514  0.3742101600459691   F   F   F
  0.4335229649922709  0.2174729734533187  0.3617403180778211   F   F   F
  0.6876616166137089  0.4820033871149205  0.6591644325561631   T   T   T
  0.1619915578067558  0.6690925110492053  0.4773506303906749   T   T   T
  0.8482308213309383  0.2947880695452842  0.6454319864583600   T   T   T
  0.8551905596872160  0.1974512988364054  0.3422994946251308   F   F   F
  0.0838569596022179  0.1717957161972222  0.6436287617696568   T   T   T
  0.8175828664874202  0.3270110762300187  0.5303662527220432   T   T   T
  0.9395864436594918  0.1819007131922621  0.4797027843473831   T   T   T
  0.1616690453522622  0.2560204105264745  0.3298309837996740   F   F   F
  0.3049078321207332  0.2875419471495491  0.3352740561066057   F   F   F
  0.9307431102873310  0.8263383246655110  0.5228138707621443   T   T   T
  0.3607541713503579  0.8901635566138424  0.3094384523532057   F   F   F
  0.5473615467785109  0.8904712284317711  0.4570544033948494   F   F   F
  0.0502275916638090  0.4377455122360271  0.5615152737908867   T   T   T
  0.0422195798238860  0.4943561175309341  0.3669441822579884   F   F   F
  0.0106535707695828  0.0317481170802911  0.6207874277878047   T   T   T
  0.3111743965948061  0.6157405656193471  0.4849242552398117   T   T   T
  0.1888334083644878  0.9733298032896940  0.4523524930603600   F   F   F
  0.0099005247347677  0.2449565715146989  0.3438245927785815   F   F   F
  0.3162828839136793  0.0528270771050288  0.2561267181627187   F   F   F
  0.1243872682115174  0.9292920469668320  0.5417210206797709   T   T   T
  0.4591212973029407  0.8624343625102252  0.6686657011024860   T   T   T
  0.7055833041954003  0.9685018427856278  0.4032410368584678   F   F   F
  0.2908298048467511  0.0279275764935923  0.5303758829806273   T   T   T
  0.7585786501586824  0.5619828108919904  0.4448067388749948   F   F   F
  0.8835099862520363  0.3471627980455806  0.5869256883754901   T   T   T
  0.3472653653481556  0.2162636371103759  0.5808914076018146   T   T   T
  0.8254354115267636  0.9791118858948380  0.5678010843868050   T   T   T
  0.2629952254942509  0.7730668542790369  0.4355206382809200   F   F   F
  0.0203018350088016  0.9381153613447708  0.3208978167787038   F   F   F
  0.7204334794469128  0.8876521786551270  0.5114768438326256   T   T   T
  0.3869418166754954  0.5550197080282899  0.3773878285710808   F   F   F
  0.9366113551046666  0.7838709015859919  0.2867270942373423   F   F   F
  0.8246993726769958  0.2724807700490715  0.4509223812659755   F   F   F
  0.0719194749101533  0.7856550821857127  0.4616356930969943   F   F   F
  0.1503160566212106  0.6503184153104885  0.6325944454212984   T   T   T
  0.8692613397515672  0.3522613978860250  0.3693036553252256   F   F   F
  0.5086693674180509  0.7053055060469333  0.4655821335629895   F   F   F
  0.7930421184660902  0.5961803359395069  0.5767673580661544   T   T   T
  0.1871836679024237  0.1858390048588015  0.5345286934716339   T   T   T
  0.5485298122957403  0.2851240367657155  0.3301800021180128   F   F   F
  0.9544545848441004  0.5037672942624738  0.2896111414666578   F   F   F
  0.6547747770206582  0.6774430180867659  0.5302477542777800   T   T   T
  0.5401092903720723  0.2647908928536324  0.4157603512433283   F   F   F
  0.0032459943235645  0.6243469304587057  0.5640401401215172   T   T   T
  0.9699348828723051  0.3142473871494546  0.5106374378875619   T   T   T
  0.4675631508769291  0.2496096798164879  0.4977040288158976   T   T   T
  0.4098351283726394  0.4428479818020327  0.4986697157971244   T   T   T
  0.8926124465512544  0.6852509986737090  0.4107342033344352   F   F   F
  0.4200876547530115  0.7352485988705979  0.3901515973022995   F   F   F
  0.4633541369180594  0.1347054903139361  0.6765680253175883   T   T   T
  0.7764677940880915  0.5427980288217071  0.2778629484862734   F   F   F
  0.8672924912431981  0.8704525491273714  0.4490875314859863   F   F   F
  0.5851628017698215  0.2483417887840665  0.5719341843266004   T   T   T
  0.6729808676836658  0.2668452952501651  0.4954863738803219   T   T   T
  0.7802766693167665  0.1785868250699165  0.6094430705906121   T   T   T
  0.1787949481875941  0.8676027237991875  0.2813152636084126   F   F   F
  0.3468860146029797  0.0784787689193109  0.3454411678601659   F   F   F
  0.7086659120389794  0.6299010726342189  0.6527063386847930   T   T   T
  0.3011490760019490  0.6080916628917178  0.5790486054560027   T   T   T
  0.5209510639653061  0.5103424314101517  0.3179224057323609   F   F   F
  0.1890363045851191  0.7320757594749238  0.5327059113392946   T   T   T
  0.4627915971814453  0.0729864436172705  0.5230597809988959   T   T   T
  0.1302941818958953  0.3757282740081235  0.4786504015079087   T   T   T
  0.1939239131473300  0.9632427121076290  0.3720698571316206   F   F   F
  0.6507225632611893  0.0710153862647287  0.5569361470617125   T   T   T
  0.2231249977367753  0.5450312577583958  0.3462682900882612   F   F   F
  0.3972794474461878  0.6761200112435404  0.3029412767086868   F   F   F
  0.4356148464049551  0.4218902050896132  0.5868392291074176   T   T   T
  0.0173718785936430  0.9595835418495682  0.4086732705475384   F   F   F
  0.9725012274340661  0.0502199856541103  0.5229834454399905   T   T   T
  0.2377188716370898  0.4799396556192216  0.6305337988472915   T   T   T
  0.5614180530807928  0.9986962763056653  0.2888519061938410   F   F   F
  0.8068685084785443  0.2886124008540349  0.2955470249216106   F   F   F
  0.0175186870126467  0.6108011535760411  0.4661665927476832   F   F   F
  0.0204736474307836  0.2489555168692590  0.4300562988101362   F   F   F
  0.5239426152082556  0.6939726317024878  0.6181020641390852   T   T   T
  0.4281094371962268  0.3687049171220593  0.3782791813424851   F   F   F
  0.2583208509961636  0.1302034331916815  0.4661467209183598   F   F   F
  0.8462061848979151  0.1816601597908000  0.5317062501241956   T   T   T
  0.1665204704597733  0.2865487897619834  0.6125400688428747   T   T   T
  0.0174372286303100  0.1987187315005912  0.5838798202899986   T   T   T
  0.9022097500079903  0.6735165858199663  0.6338184671240535   T   T   T
  0.7401972228840776  0.8889079979522023  0.2758404070975971   F   F   F
  0.7447585532337603  0.7912620945921111  0.5932988748386883   T   T   T
  0.5017052368763147  0.1831192605680295  0.6385731029413274   T   T   T
  0.8435708819486492  0.6708595768038081  0.5071744353238939   T   T   T
  0.3243252741533171  0.8333827566118378  0.5789129921165331   T   T   T
  0.3542438472579335  0.2087363362762318  0.4137203452795504   F   F   F
  0.6186647553201610  0.1068378058977686  0.4583338433151383   F   F   F
  0.1492346540496374  0.5450165395588942  0.5133739734625352   T   T   T
  0.5140560696591336  0.4593395278647279  0.4337502415732928   F   F   F
  0.1394894970582854  0.3863946735864943  0.3027559198026069   F   F   F
  0.5472622721037297  0.9039022705455366  0.3701037634389266   F   F   F
  0.8368741765124881  0.5490739659712247  0.3556502114147619   F   F   F
  0.5958527917533312  0.5172291557134169  0.6025220249396350   T   T   T
  0.0108235917414987  0.6490944335262441  0.3308338773632826   F   F   F
  0.7198864428109569  0.4135737003573238  0.5614482051323814   T   T   T
  0.2310824955142792  0.7589413780292915  0.3479634505197140   F   F   F
  0.8875118397659753  0.4827673188286996  0.5289721473256537   T   T   T
  0.8543573459998584  0.0637392115932087  0.4582920418658247   F   F   F
  0.3893253873213940  0.0061850320041355  0.6051589227462004   T   T   T
  0.6863654010861424  0.4212397745417604  0.3231412819367847   F   F   F
  0.7489295764262778  0.1812610713679348  0.3809978011225610   F   F   F
  0.5188945078912397  0.0926310214905044  0.3720291896541781   F   F   F
  0.0067917945630026  0.8165814300848034  0.5982202070621919   T   T   T
  0.3587286907547203  0.2893183323269122  0.6558719215268625   T   T   T
  0.3981515952761754  0.9628968680990084  0.4206942397198858   F   F   F
  0.6148121547104211  0.5743476939175096  0.3786363518357376   F   F   F
  0.6544566243041317  0.1764981293629830  0.2507260434131382   F   F   F
  0.6903870905067393  0.7606225839663807  0.4118385402574773   F   F   F
  0.8295513882872285  0.8940041615364223  0.3561920276110513   F   F   F
  0.9571572005035804  0.4427908213924283  0.4385178138019228   F   F   F
  0.8731144443687673  0.8683495641338023  0.6639838269054568   T   T   T
  0.5979126766394419  0.4964339985980937  0.5133277068501780   T   T   T
  0.0293820030464117  0.5155818803221135  0.6291549684571592   T   T   T
  0.4057460057020760  0.5823974873896142  0.6566721448458837   T   T   T
  0.6166562233485635  0.6443692857831920  0.2480885513447859   F   F   F
  0.5887762224127684  0.7550561721866771  0.3265038100248958   F   F   F
  0.7644688594740714  0.7201971334592656  0.3330958238475006   F   F   F
  0.6882743744252195  0.3729006688868921  0.4047166565703435   F   F   F
  0.7636101995332015  0.4210886537108996  0.4868318842795433   T   T   T
  0.2959885358517695  0.4204781590287681  0.4321498615064385   F   F   F
  0.8265997843085700  0.0654979407524792  0.2964256738633395   F   F   F
  0.1636596523160847  0.1475195823942599  0.3930932064577348   F   F   F
  0.5505099445244170  0.8715246371720954  0.5502241081107299   T   T   T
  0.1635440916954849  0.3374874656604447  0.3863705292286213   F   F   F
  0.0825921431445122  0.1487585089892498  0.4755587400854753   T   T   T
  0.2348753396994118  0.3965387873719202  0.5528859249190222   T   T   T
  0.0619660381119687  0.7723346343110578  0.3777986401210924   F   F   F
  0.9226800712717775  0.0814018792296025  0.3681847819956658   F   F   F
  0.6226509713987479  0.9870722461006280  0.6232579826104598   T   T   T
  0.4624583944176569  0.6303618299272375  0.5405954785042794   T   T   T
  0.8256729534311743  0.4545038426076634  0.6446907787179801   T   T   T
  0.1635626581181882  0.6137774209185949  0.4174815732632027   F   F   F
  0.3848707033198466  0.8347214926997943  0.5029892299130814   T   T   T
  0.1575594665534297  0.6701486059840462  0.2836926727634861   F   F   F
  0.1443213006996231  0.1123665465048731  0.3117199555095311   F   F   F
  0.1790933913778820  0.8888407246583592  0.6326598833618491   T   T   T
  0.2960277060451965  0.2975519141364106  0.4845157474194441   T   T   T
  0.4065708748414499  0.3093080494363314  0.7441861465264029   T   T   T
  0.5995677015329565  0.2538937391926397  0.7192982249620190   T   T   T
  0.9171841020009923  0.1579393321872903  0.6492409601567969   T   T   T
  0.0550519050014554  0.1614821626668111  0.7000212490491239   T   T   T
  0.9955064046690274  0.5189553086154687  0.7082891751460728   T   T   T
  0.1474172330225664  0.6316115872912366  0.7105979989293628   T   T   T
  0.7517708123809184  0.7584129561659148  0.7319883610943085   T   T   T
  0.9063843759917880  0.6813075998554047  0.7100562263601009   T   T   T
  0.5086426109250699  0.9904548383619436  0.7291864264605639   T   T   T
  0.7071338440661894  0.9537542048938086  0.7212694428689469   T   T   T
  0.8112757082659376  0.2980711492942944  0.7014100178759159   T   T   T
  0.9968410305944820  0.3091788740164657  0.6535580541004701   T   T   T
  0.2233908963636919  0.1767201557851023  0.6743439358127075   T   T   T
  0.3098675040330442  0.0137107039864643  0.6755536981216086   T   T   T
  0.3520622214649883  0.6793382011565873  0.7164290688458012   T   T   T
  0.2755350704351125  0.4835872342842549  0.7116026499668613   T   T   T
  0.2015239271461184  0.0918228422776867  0.6131065111787274   T   T   T
  0.3162333446026745  0.7467979066874966  0.6513339816014072   T   T   T
  0.5605159808386448  0.6821284185592101  0.7162309424023727   T   T   T
  0.6556424310582805  0.8239002927273090  0.6679175019423654   T   T   T
  0.0597706516244871  0.9643481051847129  0.7031055905578291   T   T   T
  0.0523472751335090  0.7747319197732045  0.6805839256584182   T   T   T
  0.5389476649673779  0.4126119468687244  0.6727932405999647   T   T   T
  0.6896389871374849  0.4875132511509672  0.7164312814095808   T   T   T
  0.6876832834160698  0.3299692050418493  0.6396580464062308   T   T   T
  0.6545559315310152  0.1033151682742934  0.6752136747694100   T   T   T
 
  0.00000000E+00  0.00000000E+00  0.00000000E+00
  0.00000000E+00  0.00000000E+00  0.00000000E+00
  0.00000000E+00  0.00000000E+00  0.00000000E+00
  0.00000000E+00  0.00000000E+00  0.00000000E+00
  0.00000000E+00  0.00000000E+00  0.00000000E+00
  0.00000000E+00  0.00000000E+00  0.00000000E+00
  0.00000000E+00  0.00000000E+00  0.00000000E+00
  0.00000000E+00  0.00000000E+00  0.00000000E+00
  0.00000000E+00  0.00000000E+00  0.00000000E+00
  0.00000000E+00  0.00000000E+00  0.00000000E+00
  0.00000000E+00  0.00000000E+00  0.00000000E+00
  0.00000000E+00  0.00000000E+00  0.00000000E+00
  0.00000000E+00  0.00000000E+00  0.00000000E+00
  0.00000000E+00  0.00000000E+00  0.00000000E+00
  0.00000000E+00  0.00000000E+00  0.00000000E+00
  0.00000000E+00  0.00000000E+00  0.00000000E+00
  0.00000000E+00  0.00000000E+00  0.00000000E+00
  0.00000000E+00  0.00000000E+00  0.00000000E+00
  0.00000000E+00  0.00000000E+00  0.00000000E+00
  0.00000000E+00  0.00000000E+00  0.00000000E+00
  0.00000000E+00  0.00000000E+00  0.00000000E+00
  0.00000000E+00  0.00000000E+00  0.00000000E+00
  0.00000000E+00  0.00000000E+00  0.00000000E+00
  0.00000000E+00  0.00000000E+00  0.00000000E+00
  0.00000000E+00  0.00000000E+00  0.00000000E+00
  0.00000000E+00  0.00000000E+00  0.00000000E+00
  0.00000000E+00  0.00000000E+00  0.00000000E+00
  0.00000000E+00  0.00000000E+00  0.00000000E+00
  0.00000000E+00  0.00000000E+00  0.00000000E+00
  0.00000000E+00  0.00000000E+00  0.00000000E+00
  0.00000000E+00  0.00000000E+00  0.00000000E+00
  0.00000000E+00  0.00000000E+00  0.00000000E+00
  0.00000000E+00  0.00000000E+00  0.00000000E+00
  0.00000000E+00  0.00000000E+00  0.00000000E+00
  0.00000000E+00  0.00000000E+00  0.00000000E+00
  0.00000000E+00  0.00000000E+00  0.00000000E+00
  0.00000000E+00  0.00000000E+00  0.00000000E+00
  0.00000000E+00  0.00000000E+00  0.00000000E+00
  0.00000000E+00  0.00000000E+00  0.00000000E+00
  0.00000000E+00  0.00000000E+00  0.00000000E+00
  0.00000000E+00  0.00000000E+00  0.00000000E+00
  0.00000000E+00  0.00000000E+00  0.00000000E+00
  0.00000000E+00  0.00000000E+00  0.00000000E+00
  0.00000000E+00  0.00000000E+00  0.00000000E+00
  0.00000000E+00  0.00000000E+00  0.00000000E+00
  0.00000000E+00  0.00000000E+00  0.00000000E+00
  0.00000000E+00  0.00000000E+00  0.00000000E+00
  0.00000000E+00  0.00000000E+00  0.00000000E+00
  0.00000000E+00  0.00000000E+00  0.00000000E+00
  0.00000000E+00  0.00000000E+00  0.00000000E+00
  0.00000000E+00  0.00000000E+00  0.00000000E+00
  0.00000000E+00  0.00000000E+00  0.00000000E+00
  0.00000000E+00  0.00000000E+00  0.00000000E+00
  0.00000000E+00  0.00000000E+00  0.00000000E+00
  0.00000000E+00  0.00000000E+00  0.00000000E+00
  0.00000000E+00  0.00000000E+00  0.00000000E+00
  0.00000000E+00  0.00000000E+00  0.00000000E+00
  0.00000000E+00  0.00000000E+00  0.00000000E+00
  0.00000000E+00  0.00000000E+00  0.00000000E+00
  0.00000000E+00  0.00000000E+00  0.00000000E+00
  0.00000000E+00  0.00000000E+00  0.00000000E+00
  0.00000000E+00  0.00000000E+00  0.00000000E+00
  0.00000000E+00  0.00000000E+00  0.00000000E+00
  0.00000000E+00  0.00000000E+00  0.00000000E+00
  0.00000000E+00  0.00000000E+00  0.00000000E+00
  0.00000000E+00  0.00000000E+00  0.00000000E+00
  0.00000000E+00  0.00000000E+00  0.00000000E+00
  0.00000000E+00  0.00000000E+00  0.00000000E+00
  0.00000000E+00  0.00000000E+00  0.00000000E+00
  0.00000000E+00  0.00000000E+00  0.00000000E+00
  0.00000000E+00  0.00000000E+00  0.00000000E+00
  0.00000000E+00  0.00000000E+00  0.00000000E+00
  0.00000000E+00  0.00000000E+00  0.00000000E+00
  0.00000000E+00  0.00000000E+00  0.00000000E+00
  0.00000000E+00  0.00000000E+00  0.00000000E+00
  0.00000000E+00  0.00000000E+00  0.00000000E+00
  0.00000000E+00  0.00000000E+00  0.00000000E+00
  0.00000000E+00  0.00000000E+00  0.00000000E+00
  0.00000000E+00  0.00000000E+00  0.00000000E+00
  0.00000000E+00  0.00000000E+00  0.00000000E+00
  0.00000000E+00  0.00000000E+00  0.00000000E+00
  0.00000000E+00  0.00000000E+00  0.00000000E+00
  0.00000000E+00  0.00000000E+00  0.00000000E+00
  0.00000000E+00  0.00000000E+00  0.00000000E+00
  0.00000000E+00  0.00000000E+00  0.00000000E+00
  0.00000000E+00  0.00000000E+00  0.00000000E+00
  0.00000000E+00  0.00000000E+00  0.00000000E+00
  0.00000000E+00  0.00000000E+00  0.00000000E+00
  0.00000000E+00  0.00000000E+00  0.00000000E+00
  0.00000000E+00  0.00000000E+00  0.00000000E+00
  0.00000000E+00  0.00000000E+00  0.00000000E+00
  0.00000000E+00  0.00000000E+00  0.00000000E+00
  0.00000000E+00  0.00000000E+00  0.00000000E+00
  0.00000000E+00  0.00000000E+00  0.00000000E+00
  0.00000000E+00  0.00000000E+00  0.00000000E+00
  0.00000000E+00  0.00000000E+00  0.00000000E+00
  0.00000000E+00  0.00000000E+00  0.00000000E+00
  0.00000000E+00  0.00000000E+00  0.00000000E+00
  0.00000000E+00  0.00000000E+00  0.00000000E+00
  0.00000000E+00  0.00000000E+00  0.00000000E+00
  0.00000000E+00  0.00000000E+00  0.00000000E+00
  0.00000000E+00  0.00000000E+00  0.00000000E+00
  0.00000000E+00  0.00000000E+00  0.00000000E+00
  0.00000000E+00  0.00000000E+00  0.00000000E+00
  0.00000000E+00  0.00000000E+00  0.00000000E+00
  0.00000000E+00  0.00000000E+00  0.00000000E+00
  0.00000000E+00  0.00000000E+00  0.00000000E+00
  0.00000000E+00  0.00000000E+00  0.00000000E+00
  0.00000000E+00  0.00000000E+00  0.00000000E+00
  0.00000000E+00  0.00000000E+00  0.00000000E+00
  0.00000000E+00  0.00000000E+00  0.00000000E+00
  0.00000000E+00  0.00000000E+00  0.00000000E+00
  0.00000000E+00  0.00000000E+00  0.00000000E+00
  0.00000000E+00  0.00000000E+00  0.00000000E+00
  0.00000000E+00  0.00000000E+00  0.00000000E+00
  0.00000000E+00  0.00000000E+00  0.00000000E+00
  0.00000000E+00  0.00000000E+00  0.00000000E+00
  0.00000000E+00  0.00000000E+00  0.00000000E+00
  0.00000000E+00  0.00000000E+00  0.00000000E+00
  0.00000000E+00  0.00000000E+00  0.00000000E+00
  0.00000000E+00  0.00000000E+00  0.00000000E+00
  0.00000000E+00  0.00000000E+00  0.00000000E+00
  0.00000000E+00  0.00000000E+00  0.00000000E+00
  0.00000000E+00  0.00000000E+00  0.00000000E+00
  0.00000000E+00  0.00000000E+00  0.00000000E+00
  0.00000000E+00  0.00000000E+00  0.00000000E+00
  0.00000000E+00  0.00000000E+00  0.00000000E+00
  0.00000000E+00  0.00000000E+00  0.00000000E+00
  0.00000000E+00  0.00000000E+00  0.00000000E+00
  0.00000000E+00  0.00000000E+00  0.00000000E+00
  0.00000000E+00  0.00000000E+00  0.00000000E+00
  0.00000000E+00  0.00000000E+00  0.00000000E+00
  0.00000000E+00  0.00000000E+00  0.00000000E+00
  0.00000000E+00  0.00000000E+00  0.00000000E+00
  0.00000000E+00  0.00000000E+00  0.00000000E+00
  0.00000000E+00  0.00000000E+00  0.00000000E+00
  0.00000000E+00  0.00000000E+00  0.00000000E+00
  0.00000000E+00  0.00000000E+00  0.00000000E+00
  0.00000000E+00  0.00000000E+00  0.00000000E+00
  0.00000000E+00  0.00000000E+00  0.00000000E+00
  0.00000000E+00  0.00000000E+00  0.00000000E+00
  0.00000000E+00  0.00000000E+00  0.00000000E+00
  0.00000000E+00  0.00000000E+00  0.00000000E+00
  0.00000000E+00  0.00000000E+00  0.00000000E+00
  0.00000000E+00  0.00000000E+00  0.00000000E+00
  0.00000000E+00  0.00000000E+00  0.00000000E+00
  0.00000000E+00  0.00000000E+00  0.00000000E+00
  0.00000000E+00  0.00000000E+00  0.00000000E+00
  0.00000000E+00  0.00000000E+00  0.00000000E+00
  0.00000000E+00  0.00000000E+00  0.00000000E+00
  0.00000000E+00  0.00000000E+00  0.00000000E+00
  0.00000000E+00  0.00000000E+00  0.00000000E+00
  0.00000000E+00  0.00000000E+00  0.00000000E+00
  0.00000000E+00  0.00000000E+00  0.00000000E+00
  0.00000000E+00  0.00000000E+00  0.00000000E+00
  0.00000000E+00  0.00000000E+00  0.00000000E+00
  0.00000000E+00  0.00000000E+00  0.00000000E+00
  0.00000000E+00  0.00000000E+00  0.00000000E+00
  0.00000000E+00  0.00000000E+00  0.00000000E+00
  0.00000000E+00  0.00000000E+00  0.00000000E+00
  0.00000000E+00  0.00000000E+00  0.00000000E+00
  0.00000000E+00  0.00000000E+00  0.00000000E+00
  0.00000000E+00  0.00000000E+00  0.00000000E+00
  0.00000000E+00  0.00000000E+00  0.00000000E+00
  0.00000000E+00  0.00000000E+00  0.00000000E+00
  0.00000000E+00  0.00000000E+00  0.00000000E+00
  0.00000000E+00  0.00000000E+00  0.00000000E+00
  0.00000000E+00  0.00000000E+00  0.00000000E+00
  0.00000000E+00  0.00000000E+00  0.00000000E+00
  0.00000000E+00  0.00000000E+00  0.00000000E+00
  0.00000000E+00  0.00000000E+00  0.00000000E+00
  0.00000000E+00  0.00000000E+00  0.00000000E+00
  0.00000000E+00  0.00000000E+00  0.00000000E+00
  0.00000000E+00  0.00000000E+00  0.00000000E+00
  0.00000000E+00  0.00000000E+00  0.00000000E+00
  0.00000000E+00  0.00000000E+00  0.00000000E+00
  0.00000000E+00  0.00000000E+00  0.00000000E+00
  0.00000000E+00  0.00000000E+00  0.00000000E+00
  0.00000000E+00  0.00000000E+00  0.00000000E+00
  0.00000000E+00  0.00000000E+00  0.00000000E+00
  0.00000000E+00  0.00000000E+00  0.00000000E+00
  0.00000000E+00  0.00000000E+00  0.00000000E+00
  0.00000000E+00  0.00000000E+00  0.00000000E+00
  0.00000000E+00  0.00000000E+00  0.00000000E+00
  0.00000000E+00  0.00000000E+00  0.00000000E+00
  0.00000000E+00  0.00000000E+00  0.00000000E+00
  0.00000000E+00  0.00000000E+00  0.00000000E+00
  0.00000000E+00  0.00000000E+00  0.00000000E+00
  0.00000000E+00  0.00000000E+00  0.00000000E+00
  0.00000000E+00  0.00000000E+00  0.00000000E+00
  0.00000000E+00  0.00000000E+00  0.00000000E+00
  0.00000000E+00  0.00000000E+00  0.00000000E+00
  0.00000000E+00  0.00000000E+00  0.00000000E+00
  0.00000000E+00  0.00000000E+00  0.00000000E+00
  0.00000000E+00  0.00000000E+00  0.00000000E+00
  0.00000000E+00  0.00000000E+00  0.00000000E+00
  0.00000000E+00  0.00000000E+00  0.00000000E+00
  0.00000000E+00  0.00000000E+00  0.00000000E+00
  0.00000000E+00  0.00000000E+00  0.00000000E+00
  0.00000000E+00  0.00000000E+00  0.00000000E+00
  0.00000000E+00  0.00000000E+00  0.00000000E+00
  0.00000000E+00  0.00000000E+00  0.00000000E+00
  0.00000000E+00  0.00000000E+00  0.00000000E+00
  0.00000000E+00  0.00000000E+00  0.00000000E+00
  0.00000000E+00  0.00000000E+00  0.00000000E+00
  0.00000000E+00  0.00000000E+00  0.00000000E+00
  0.00000000E+00  0.00000000E+00  0.00000000E+00
  0.00000000E+00  0.00000000E+00  0.00000000E+00
  0.00000000E+00  0.00000000E+00  0.00000000E+00
  0.00000000E+00  0.00000000E+00  0.00000000E+00
  0.00000000E+00  0.00000000E+00  0.00000000E+00
  0.00000000E+00  0.00000000E+00  0.00000000E+00
  0.00000000E+00  0.00000000E+00  0.00000000E+00
  0.00000000E+00  0.00000000E+00  0.00000000E+00
  0.00000000E+00  0.00000000E+00  0.00000000E+00
  0.00000000E+00  0.00000000E+00  0.00000000E+00
  0.00000000E+00  0.00000000E+00  0.00000000E+00
  0.00000000E+00  0.00000000E+00  0.00000000E+00
  0.00000000E+00  0.00000000E+00  0.00000000E+00
  0.00000000E+00  0.00000000E+00  0.00000000E+00
  0.00000000E+00  0.00000000E+00  0.00000000E+00
  0.00000000E+00  0.00000000E+00  0.00000000E+00
  0.00000000E+00  0.00000000E+00  0.00000000E+00
  0.00000000E+00  0.00000000E+00  0.00000000E+00
  0.00000000E+00  0.00000000E+00  0.00000000E+00
  0.00000000E+00  0.00000000E+00  0.00000000E+00
  0.00000000E+00  0.00000000E+00  0.00000000E+00
  0.00000000E+00  0.00000000E+00  0.00000000E+00
  0.00000000E+00  0.00000000E+00  0.00000000E+00
