Hf  O  F                                
   1.00000000000000     
    13.7225301000000002    0.0000000000000000    0.0000000000000000
     0.0000000000000000   13.7225301000000002    0.0000000000000000
     0.0000000000000000    0.0000000000000000   32.7225301000000002
   Hf   O    F 
    72   128    32
Direct
  0.1462647548366296  0.8479476732387720  0.4063251075092371
  0.8936834887783015  0.9493695060637166  0.5117056121796394
  0.0080310144967920  0.6400875368344234  0.3919761259829170
  0.8954236141256624  0.6222844425909136  0.2942670165041939
  0.0980790391730690  0.7684037173191446  0.3093970514492010
  0.4104578177380662  0.9474015542303986  0.5577513312178923
  0.6391342343323750  0.4975957040312824  0.2742085480913066
  0.6549938770161068  0.7431233571256073  0.2579056914382256
  0.9494702624715429  0.7280087703067905  0.6709984611274187
  0.2870615321050046  0.0584256589916956  0.4095296327452141
  0.9224089179394951  0.7284446370555377  0.4736090589214189
  0.3164844000977120  0.7536674331053781  0.3091863191280791
  0.1189019392547258  0.5189580259955544  0.3172758642784408
  0.3387646472977542  0.1727605377726138  0.5279507886008762
  0.4740541951327112  0.9655465934857609  0.7233908153674855
  0.2331547582991862  0.6461614862281235  0.6581944638617135
  0.5517928232061148  0.3927038981729377  0.5214225050922903
  0.4886129128862644  0.9939367253181007  0.3266059934017693
  0.2945633306146908  0.6349322245754602  0.3959082216030963
  0.8779107066517505  0.7142510568042343  0.5722619144979261
  0.8529027239227768  0.4262750340206601  0.3300687709118360
  0.9178037518592472  0.0800166270773708  0.5947628053087005
  0.0450083565456447  0.3744568723440992  0.4093726386296931
  0.9013749190795542  0.5020998185585966  0.5917911483377675
  0.1449564436273645  0.5474286357474085  0.5714240955115373
  0.1501010160495583  0.2400364509619379  0.4741917764717647
  0.1065812509680076  0.2972905510377958  0.5673836937244385
  0.7238292851208377  0.5584210708031078  0.5143792309399601
  0.3906206518504223  0.1574112773202769  0.6388522398364578
  0.6654441434443549  0.1273952414193552  0.6108676596157369
  0.5895222829719586  0.2411403912809653  0.6986906250795873
  0.2651616741883179  0.4504058133508001  0.4962161471290029
  0.2240763931146409  0.3999649402186218  0.6627781499911735
  0.8725377809712161  0.9523609909221731  0.4077318827177354
  0.1708745996862077  0.0141936129267366  0.4994968820723333
  0.7256369249646055  0.8776294655775863  0.7194368934322591
  0.5225709335650871  0.6646976211820623  0.3597753373575581
  0.0012407320013586  0.4713580367296886  0.5015099473341926
  0.8956611771170504  0.8690024279647242  0.2933883211784454
  0.3974101314446064  0.8171750059469501  0.4479939831407717
  0.4204780007227142  0.3029470377781682  0.4487736009432307
  0.5293831855285198  0.7584912903975966  0.5184897020189581
  0.3100749333645053  0.7205452441334577  0.5626559477049203
  0.0898883541459420  0.8240753147191071  0.5697999832480918
  0.6498694117609596  0.1715162725716558  0.4050247343280839
  0.5695065465633499  0.9613353675542774  0.4255163199241490
  0.2829798865943245  0.9241571853371293  0.6437920010944419
  0.4748264433293022  0.5458089626257977  0.4507129817086293
  0.5790941364254582  0.1473350665915519  0.5053630474105331
  0.0611739124293302  0.0380639363747111  0.3526692783566498
  0.7945747569014804  0.3812250757574475  0.4399304503655280
  0.7022150286891669  0.9228788268332851  0.5693250631278842
  0.4936629441869942  0.7543259118698499  0.6863685404209671
  0.6814187721463202  0.8521442424324251  0.3529533682296310
  0.2763574986489121  0.9833058178534351  0.3059956049908428
  0.4307816322644119  0.5421539611015914  0.5928495920949264
  0.6573285153618090  0.2210017816444312  0.3008400997593953
  0.6525126555976791  0.6712346316451856  0.6032736960486810
  0.9717427969630534  0.9834110435103800  0.7079231544177871
  0.7484131414353612  0.5988135510386430  0.3981539561456496
  0.2926049921631395  0.3916863516084003  0.3618074700138154
  0.6921642851530646  0.9916986707484895  0.2529427356864629
  0.5634339393011139  0.4277584529303070  0.3721790261632495
  0.4398572538955300  0.2093318149661688  0.3518600579823766
  0.6245939318900754  0.5038494719437491  0.6777238397520883
  0.1587802784291894  0.6673265322093221  0.4722336617235375
  0.8219032623324145  0.3099830382629494  0.6456371439078097
  0.8659474534297084  0.2037978798191408  0.3570405403909322
  0.0794041814634205  0.1740559130579375  0.6538447388832901
  0.7658749060431357  0.3372628747596177  0.5362137266039877
  0.9366861694061015  0.1714864546261833  0.4785475676707285
  0.1578401917215316  0.2281567909593645  0.3317785031150058
  0.3056689390852241  0.2515491193317559  0.3315751277627865
  0.9524250443444375  0.8014686379020219  0.5291441120843924
  0.3851585342957689  0.8741499222610157  0.3245897236825527
  0.5443378857004052  0.8531788511539656  0.4654974365440820
  0.0317706671365707  0.4334125317451029  0.5679862101031998
  0.0447529069601821  0.4982569511604678  0.3727286281830654
  0.9890158446474580  0.0526957489902644  0.6484385707765302
  0.2940143397927629  0.5776302479566977  0.4567763784473843
  0.2068408433266428  0.9514320036593955  0.4459577874899889
  0.0142498379163505  0.1851945154665248  0.3339557396725369
  0.3990982676311797  0.0129480092197371  0.2772808375182784
  0.0661440309340875  0.9435270217954146  0.5298684529999300
  0.4052367628659452  0.8760367920401154  0.6791524407333341
  0.7153628298181051  0.9351315580850125  0.4038291121585383
  0.2894066772229272  0.0208308044649199  0.5352460196222087
  0.9995247671866665  0.8525448020926496  0.6919163836066485
  0.7679680848174529  0.5389053606096778  0.4518440346975010
  0.8447241922110817  0.3563525768549841  0.5879043431613452
  0.3595840796876034  0.2068353692425236  0.5839745180730990
  0.8611677314001533  0.9542305625454077  0.5753677434088933
  0.2587761945447796  0.7628781099976389  0.4392764920687696
  0.0243933076072723  0.9216304292282977  0.3112509277132450
  0.7557503760943435  0.9186834266315629  0.5127951269743241
  0.4245249756724578  0.5541836670456950  0.3881096942422302
  0.9753202798312537  0.7512534639116959  0.2731004998200581
  0.7866780957505474  0.2421582037794584  0.4104166674252526
  0.0644847541149593  0.7738187900774811  0.4511367272480378
  0.1726360078276535  0.6890386379189446  0.5961213253752791
  0.9244607983419236  0.3439407383074676  0.3706703181753739
  0.4655874272176164  0.6866522466656686  0.4702746370293613
  0.7807849504783153  0.5886215818885258  0.5766337087217689
  0.1868421359485234  0.1963343332080660  0.5349347298905281
  0.5254454696597616  0.1477359189401516  0.3086313401514100
  0.9636020537392380  0.4865407937295693  0.2930017868002111
  0.6379058404583916  0.6749708106400397  0.5390533705971289
  0.5924058370882421  0.2768765469273136  0.3648405621727584
  0.9899185163275961  0.5985338893262870  0.5545663130719360
  0.0316430175108636  0.2951779106702122  0.5124983669950587
  0.4632515171796396  0.2547569597312465  0.5082217419377946
  0.4159506945340511  0.4401909570678876  0.4888803372885663
  0.8740014496229119  0.6840131011883362  0.4155326634990366
  0.4199164899405002  0.7377729297201885  0.3952881987008355
  0.7790522747499785  0.5154381842682189  0.2833835288593937
  0.8890443668589619  0.8645150923529181  0.4562293863191701
  0.6393241504647807  0.2600120539388892  0.5383489830081043
  0.5649777765033930  0.2330451339245417  0.4480348077504970
  0.8154675882986594  0.1720900999656117  0.6126841942308202
  0.2133454021811556  0.8523441398051453  0.2844493144128619
  0.3646562597650075  0.0629368297902843  0.3522308888486792
  0.3441624972072275  0.6491002802789622  0.6200440601654319
  0.5845484948429864  0.5367381501597380  0.3271370852498744
  0.1860605634964467  0.7503191702627984  0.5243606810840111
  0.4620710301754620  0.0705773938653216  0.5232913524594094
  0.1315985555850649  0.3981948332913762  0.4616302748763961
  0.2033744317356524  0.9492887736833091  0.3643057806668230
  0.6538447119980163  0.0731173554435886  0.5527257843058010
  0.2433160559922264  0.5300210140375955  0.3532358224851794
  0.4194011525762937  0.6577123398683609  0.3159119820392930
  0.4680037631020423  0.4205735487752802  0.5665593355140556
  0.0275424007960622  0.9465228544834605  0.4009002312266790
  0.9154129788124439  0.0982460810158807  0.5316617616611203
  0.1712600821964455  0.5150125803696912  0.6304755803491958
  0.6367873581928659  0.9563259089326586  0.3063829501361261
  0.8029973476037991  0.2956061133976621  0.3116640693567705
  0.0080645486127847  0.6026732607502890  0.4651527959511049
  0.0203700783676900  0.2408858899765889  0.4334730886992371
  0.5550727525566677  0.7503017801310354  0.6325643729790934
  0.4388888569314533  0.3667497251149982  0.3489952718652455
  0.2590954945204067  0.1257988450019609  0.4657713758447734
  0.8383205849500143  0.2768753063877941  0.4882089395583182
  0.1314304129008544  0.3104661912124206  0.6315715845662540
  0.0322867827565772  0.1794896144215981  0.5943800150403116
  0.9102949209917507  0.6252252893853711  0.6263227471497096
  0.6440101874853532  0.8672471950388517  0.2272895861466070
  0.7506358786964681  0.7846413754053067  0.5898646047432543
  0.5327740192656159  0.1613984950366071  0.6334255915629660
  0.8211436518377331  0.6756459111123559  0.5104528222024438
  0.3471309739822046  0.8415619644570348  0.5938159014409651
  0.3835249146527044  0.1916631268837221  0.4099051717507545
  0.6386046571064501  0.0705561861689303  0.4562934317984366
  0.1401904733621458  0.5424988442001815  0.5078449137317538
  0.5205941074551453  0.4047636851180417  0.4282187013489945
  0.1621170658488683  0.3801083957636261  0.3097784665885669
  0.5463249225483470  0.8906214925813226  0.3710026318077801
  0.8514856027350479  0.5817011732365848  0.3505667335999251
  0.5634089975444422  0.5525998810299917  0.6185480230877863
  0.0213914297406891  0.6385845240627727  0.3273306647151006
  0.6729496248053827  0.4463094758821610  0.5523129868276159
  0.2345475319831249  0.7487990870854606  0.3589222024383888
  0.8592452691792850  0.4666380986991512  0.5242236265796213
  0.8768211632686277  0.0491777772610097  0.4551412400102345
  0.3781243367477706  0.0192831369990333  0.6120426923341653
  0.6188713072667676  0.3561523860500542  0.2790918906222546
  0.7292335080480232  0.1441079912715231  0.3467582317695523
  0.5458706091406691  0.0791390411567790  0.3818859847607251
  0.9807291015598805  0.7876355397163078  0.6079513017412219
  0.4071557915192301  0.9588824119974697  0.4281881078281627
  0.5953434085565024  0.5684468186500498  0.4049126875371584
  0.6821272529429236  0.1353976043375753  0.2533978995601956
  0.6725292680494753  0.7199313915543105  0.3793013358806909
  0.8332408589227203  0.8708532329167472  0.3481170273509777
  0.9349526143229863  0.4264724878646904  0.4479218248918022
  0.8285550546413514  0.9741364983130399  0.7107450355713287
  0.5803272617162564  0.5296997962747201  0.4931191440244618
  0.2927290772144258  0.5642119086362694  0.5505110262327887
  0.6173782344349638  0.6124804999415836  0.2377532160233849
  0.5662583531455758  0.3773609377591641  0.6823255880828932
  0.5944848761852596  0.7561150485066280  0.3112353745323708
  0.7917851750102252  0.7385842974964570  0.2807667351296219
  0.7396852987738564  0.4421431273553632  0.3797033074123365
  0.6942435481922495  0.3841980736764045  0.4813406126454635
  0.3224130385708242  0.3933582076091637  0.4196138870614802
  0.8295624132627606  0.9630010996749753  0.2584078911417497
  0.1677447600978102  0.1272473468936337  0.3829721513880822
  0.5533629636334785  0.8818557193902730  0.5549784574513756
  0.1657636393184793  0.3190709489109430  0.3829870772493442
  0.0733717857863940  0.1107386093603968  0.4809185254946161
  0.2091271332177674  0.4000636289494958  0.5514217625705016
  0.0480444140993779  0.7751705869817611  0.3685880659430903
  0.9092418176820763  0.0637113841748010  0.3684821971695937
  0.6948964462787537  0.9932985324170945  0.6227699700604162
  0.4514718774722403  0.6669806020518148  0.5563325670966091
  0.1470396007885882  0.6281994923915883  0.4108912744721778
  0.3833429024402080  0.8270600686246879  0.5152715269720654
  0.1833124612127359  0.6511153654137103  0.2907607201458906
  0.1699751485816189  0.0886173316759437  0.3047838657635563
  0.1697883432850189  0.9068688113457152  0.6032305325300308
  0.2908930007860909  0.2990303855459489  0.4874935018304693
  0.4420443351812882  0.2293972104188401  0.6956303825547744
  0.6016461636611020  0.2557817227519005  0.7556869313284933
  0.9470833611288748  0.2475795295603916  0.6690958267717190
  0.1660945084023090  0.3503477535151799  0.7117955352366711
  0.9204421738269873  0.6509753420235407  0.7178528831515059
  0.0882194704890197  0.6655774564911304  0.6753014399290832
  0.3999368185315165 -0.0058569328818531  0.7703658959793980
  0.6188067922132902  0.9480860911323958  0.7533909585944444
  0.7751752778797198  0.8199932145926967  0.7670557116965248
  0.8088999063246450  0.7921050965537504  0.6779719029520691
  0.0626987043515996  0.1251072261255003  0.7114953416318932
  0.1918581838414451  0.9715932574913897  0.6854300603528570
  0.3127896835864423  0.2849893467744107  0.6561452466288463
  0.3720750400205941  0.0548691142848557  0.6885897529410266
  0.5466770226839347  0.0913826771155197  0.7158567815372536
  0.6937654675967729  0.1454202503335081  0.6758304171123382
  0.7503460745490713  0.3032676885499745  0.6993620606283211
  0.9258977545517595  0.4257638472893485  0.6478007688058502
  0.7462281141908597  0.4455750664563879  0.6479341625668780
  0.0054364229606996  0.9852630429778082  0.7645063674004662
  0.6798518651285155  0.2844199885043294  0.6239929405692920
  0.6849978158859331  0.5161157716733609  0.7295682940840810
  0.4810193614913239  0.8216397843999125  0.7442875157492377
  0.6326548890609835  0.7492087525642736  0.7126780134809224
  0.7129412840872232  0.6262660296090296  0.6565930853318152
  0.5891335040967720  0.9048805407429134  0.6838485384385045
  0.2161321589164143  0.1268480472042371  0.6423672272407727
  0.2269161925714287  0.7914267543622392  0.6654821181578815
  0.2479215360444463  0.5285379403807661  0.6985352599472180
  0.3573170676095115  0.4580113872678833  0.6372613865130189
  0.3563735750587427  0.6858964592417968  0.6962444583634737
  0.5180936114718209  0.6023385939593877  0.6958237698025848
 
  0.00000000E+00  0.00000000E+00  0.00000000E+00
  0.00000000E+00  0.00000000E+00  0.00000000E+00
  0.00000000E+00  0.00000000E+00  0.00000000E+00
  0.00000000E+00  0.00000000E+00  0.00000000E+00
  0.00000000E+00  0.00000000E+00  0.00000000E+00
  0.00000000E+00  0.00000000E+00  0.00000000E+00
  0.00000000E+00  0.00000000E+00  0.00000000E+00
  0.00000000E+00  0.00000000E+00  0.00000000E+00
  0.00000000E+00  0.00000000E+00  0.00000000E+00
  0.00000000E+00  0.00000000E+00  0.00000000E+00
  0.00000000E+00  0.00000000E+00  0.00000000E+00
  0.00000000E+00  0.00000000E+00  0.00000000E+00
  0.00000000E+00  0.00000000E+00  0.00000000E+00
  0.00000000E+00  0.00000000E+00  0.00000000E+00
  0.00000000E+00  0.00000000E+00  0.00000000E+00
  0.00000000E+00  0.00000000E+00  0.00000000E+00
  0.00000000E+00  0.00000000E+00  0.00000000E+00
  0.00000000E+00  0.00000000E+00  0.00000000E+00
  0.00000000E+00  0.00000000E+00  0.00000000E+00
  0.00000000E+00  0.00000000E+00  0.00000000E+00
  0.00000000E+00  0.00000000E+00  0.00000000E+00
  0.00000000E+00  0.00000000E+00  0.00000000E+00
  0.00000000E+00  0.00000000E+00  0.00000000E+00
  0.00000000E+00  0.00000000E+00  0.00000000E+00
  0.00000000E+00  0.00000000E+00  0.00000000E+00
  0.00000000E+00  0.00000000E+00  0.00000000E+00
  0.00000000E+00  0.00000000E+00  0.00000000E+00
  0.00000000E+00  0.00000000E+00  0.00000000E+00
  0.00000000E+00  0.00000000E+00  0.00000000E+00
  0.00000000E+00  0.00000000E+00  0.00000000E+00
  0.00000000E+00  0.00000000E+00  0.00000000E+00
  0.00000000E+00  0.00000000E+00  0.00000000E+00
  0.00000000E+00  0.00000000E+00  0.00000000E+00
  0.00000000E+00  0.00000000E+00  0.00000000E+00
  0.00000000E+00  0.00000000E+00  0.00000000E+00
  0.00000000E+00  0.00000000E+00  0.00000000E+00
  0.00000000E+00  0.00000000E+00  0.00000000E+00
  0.00000000E+00  0.00000000E+00  0.00000000E+00
  0.00000000E+00  0.00000000E+00  0.00000000E+00
  0.00000000E+00  0.00000000E+00  0.00000000E+00
  0.00000000E+00  0.00000000E+00  0.00000000E+00
  0.00000000E+00  0.00000000E+00  0.00000000E+00
  0.00000000E+00  0.00000000E+00  0.00000000E+00
  0.00000000E+00  0.00000000E+00  0.00000000E+00
  0.00000000E+00  0.00000000E+00  0.00000000E+00
  0.00000000E+00  0.00000000E+00  0.00000000E+00
  0.00000000E+00  0.00000000E+00  0.00000000E+00
  0.00000000E+00  0.00000000E+00  0.00000000E+00
  0.00000000E+00  0.00000000E+00  0.00000000E+00
  0.00000000E+00  0.00000000E+00  0.00000000E+00
  0.00000000E+00  0.00000000E+00  0.00000000E+00
  0.00000000E+00  0.00000000E+00  0.00000000E+00
  0.00000000E+00  0.00000000E+00  0.00000000E+00
  0.00000000E+00  0.00000000E+00  0.00000000E+00
  0.00000000E+00  0.00000000E+00  0.00000000E+00
  0.00000000E+00  0.00000000E+00  0.00000000E+00
  0.00000000E+00  0.00000000E+00  0.00000000E+00
  0.00000000E+00  0.00000000E+00  0.00000000E+00
  0.00000000E+00  0.00000000E+00  0.00000000E+00
  0.00000000E+00  0.00000000E+00  0.00000000E+00
  0.00000000E+00  0.00000000E+00  0.00000000E+00
  0.00000000E+00  0.00000000E+00  0.00000000E+00
  0.00000000E+00  0.00000000E+00  0.00000000E+00
  0.00000000E+00  0.00000000E+00  0.00000000E+00
  0.00000000E+00  0.00000000E+00  0.00000000E+00
  0.00000000E+00  0.00000000E+00  0.00000000E+00
  0.00000000E+00  0.00000000E+00  0.00000000E+00
  0.00000000E+00  0.00000000E+00  0.00000000E+00
  0.00000000E+00  0.00000000E+00  0.00000000E+00
  0.00000000E+00  0.00000000E+00  0.00000000E+00
  0.00000000E+00  0.00000000E+00  0.00000000E+00
  0.00000000E+00  0.00000000E+00  0.00000000E+00
  0.00000000E+00  0.00000000E+00  0.00000000E+00
  0.00000000E+00  0.00000000E+00  0.00000000E+00
  0.00000000E+00  0.00000000E+00  0.00000000E+00
  0.00000000E+00  0.00000000E+00  0.00000000E+00
  0.00000000E+00  0.00000000E+00  0.00000000E+00
  0.00000000E+00  0.00000000E+00  0.00000000E+00
  0.00000000E+00  0.00000000E+00  0.00000000E+00
  0.00000000E+00  0.00000000E+00  0.00000000E+00
  0.00000000E+00  0.00000000E+00  0.00000000E+00
  0.00000000E+00  0.00000000E+00  0.00000000E+00
  0.00000000E+00  0.00000000E+00  0.00000000E+00
  0.00000000E+00  0.00000000E+00  0.00000000E+00
  0.00000000E+00  0.00000000E+00  0.00000000E+00
  0.00000000E+00  0.00000000E+00  0.00000000E+00
  0.00000000E+00  0.00000000E+00  0.00000000E+00
  0.00000000E+00  0.00000000E+00  0.00000000E+00
  0.00000000E+00  0.00000000E+00  0.00000000E+00
  0.00000000E+00  0.00000000E+00  0.00000000E+00
  0.00000000E+00  0.00000000E+00  0.00000000E+00
  0.00000000E+00  0.00000000E+00  0.00000000E+00
  0.00000000E+00  0.00000000E+00  0.00000000E+00
  0.00000000E+00  0.00000000E+00  0.00000000E+00
  0.00000000E+00  0.00000000E+00  0.00000000E+00
  0.00000000E+00  0.00000000E+00  0.00000000E+00
  0.00000000E+00  0.00000000E+00  0.00000000E+00
  0.00000000E+00  0.00000000E+00  0.00000000E+00
  0.00000000E+00  0.00000000E+00  0.00000000E+00
  0.00000000E+00  0.00000000E+00  0.00000000E+00
  0.00000000E+00  0.00000000E+00  0.00000000E+00
  0.00000000E+00  0.00000000E+00  0.00000000E+00
  0.00000000E+00  0.00000000E+00  0.00000000E+00
  0.00000000E+00  0.00000000E+00  0.00000000E+00
  0.00000000E+00  0.00000000E+00  0.00000000E+00
  0.00000000E+00  0.00000000E+00  0.00000000E+00
  0.00000000E+00  0.00000000E+00  0.00000000E+00
  0.00000000E+00  0.00000000E+00  0.00000000E+00
  0.00000000E+00  0.00000000E+00  0.00000000E+00
  0.00000000E+00  0.00000000E+00  0.00000000E+00
  0.00000000E+00  0.00000000E+00  0.00000000E+00
  0.00000000E+00  0.00000000E+00  0.00000000E+00
  0.00000000E+00  0.00000000E+00  0.00000000E+00
  0.00000000E+00  0.00000000E+00  0.00000000E+00
  0.00000000E+00  0.00000000E+00  0.00000000E+00
  0.00000000E+00  0.00000000E+00  0.00000000E+00
  0.00000000E+00  0.00000000E+00  0.00000000E+00
  0.00000000E+00  0.00000000E+00  0.00000000E+00
  0.00000000E+00  0.00000000E+00  0.00000000E+00
  0.00000000E+00  0.00000000E+00  0.00000000E+00
  0.00000000E+00  0.00000000E+00  0.00000000E+00
  0.00000000E+00  0.00000000E+00  0.00000000E+00
  0.00000000E+00  0.00000000E+00  0.00000000E+00
  0.00000000E+00  0.00000000E+00  0.00000000E+00
  0.00000000E+00  0.00000000E+00  0.00000000E+00
  0.00000000E+00  0.00000000E+00  0.00000000E+00
  0.00000000E+00  0.00000000E+00  0.00000000E+00
  0.00000000E+00  0.00000000E+00  0.00000000E+00
  0.00000000E+00  0.00000000E+00  0.00000000E+00
  0.00000000E+00  0.00000000E+00  0.00000000E+00
  0.00000000E+00  0.00000000E+00  0.00000000E+00
  0.00000000E+00  0.00000000E+00  0.00000000E+00
  0.00000000E+00  0.00000000E+00  0.00000000E+00
  0.00000000E+00  0.00000000E+00  0.00000000E+00
  0.00000000E+00  0.00000000E+00  0.00000000E+00
  0.00000000E+00  0.00000000E+00  0.00000000E+00
  0.00000000E+00  0.00000000E+00  0.00000000E+00
  0.00000000E+00  0.00000000E+00  0.00000000E+00
  0.00000000E+00  0.00000000E+00  0.00000000E+00
  0.00000000E+00  0.00000000E+00  0.00000000E+00
  0.00000000E+00  0.00000000E+00  0.00000000E+00
  0.00000000E+00  0.00000000E+00  0.00000000E+00
  0.00000000E+00  0.00000000E+00  0.00000000E+00
  0.00000000E+00  0.00000000E+00  0.00000000E+00
  0.00000000E+00  0.00000000E+00  0.00000000E+00
  0.00000000E+00  0.00000000E+00  0.00000000E+00
  0.00000000E+00  0.00000000E+00  0.00000000E+00
  0.00000000E+00  0.00000000E+00  0.00000000E+00
  0.00000000E+00  0.00000000E+00  0.00000000E+00
  0.00000000E+00  0.00000000E+00  0.00000000E+00
  0.00000000E+00  0.00000000E+00  0.00000000E+00
  0.00000000E+00  0.00000000E+00  0.00000000E+00
  0.00000000E+00  0.00000000E+00  0.00000000E+00
  0.00000000E+00  0.00000000E+00  0.00000000E+00
  0.00000000E+00  0.00000000E+00  0.00000000E+00
  0.00000000E+00  0.00000000E+00  0.00000000E+00
  0.00000000E+00  0.00000000E+00  0.00000000E+00
  0.00000000E+00  0.00000000E+00  0.00000000E+00
  0.00000000E+00  0.00000000E+00  0.00000000E+00
  0.00000000E+00  0.00000000E+00  0.00000000E+00
  0.00000000E+00  0.00000000E+00  0.00000000E+00
  0.00000000E+00  0.00000000E+00  0.00000000E+00
  0.00000000E+00  0.00000000E+00  0.00000000E+00
  0.00000000E+00  0.00000000E+00  0.00000000E+00
  0.00000000E+00  0.00000000E+00  0.00000000E+00
  0.00000000E+00  0.00000000E+00  0.00000000E+00
  0.00000000E+00  0.00000000E+00  0.00000000E+00
  0.00000000E+00  0.00000000E+00  0.00000000E+00
  0.00000000E+00  0.00000000E+00  0.00000000E+00
  0.00000000E+00  0.00000000E+00  0.00000000E+00
  0.00000000E+00  0.00000000E+00  0.00000000E+00
  0.00000000E+00  0.00000000E+00  0.00000000E+00
  0.00000000E+00  0.00000000E+00  0.00000000E+00
  0.00000000E+00  0.00000000E+00  0.00000000E+00
  0.00000000E+00  0.00000000E+00  0.00000000E+00
  0.00000000E+00  0.00000000E+00  0.00000000E+00
  0.00000000E+00  0.00000000E+00  0.00000000E+00
  0.00000000E+00  0.00000000E+00  0.00000000E+00
  0.00000000E+00  0.00000000E+00  0.00000000E+00
  0.00000000E+00  0.00000000E+00  0.00000000E+00
  0.00000000E+00  0.00000000E+00  0.00000000E+00
  0.00000000E+00  0.00000000E+00  0.00000000E+00
  0.00000000E+00  0.00000000E+00  0.00000000E+00
  0.00000000E+00  0.00000000E+00  0.00000000E+00
  0.00000000E+00  0.00000000E+00  0.00000000E+00
  0.00000000E+00  0.00000000E+00  0.00000000E+00
  0.00000000E+00  0.00000000E+00  0.00000000E+00
  0.00000000E+00  0.00000000E+00  0.00000000E+00
  0.00000000E+00  0.00000000E+00  0.00000000E+00
  0.00000000E+00  0.00000000E+00  0.00000000E+00
  0.00000000E+00  0.00000000E+00  0.00000000E+00
  0.00000000E+00  0.00000000E+00  0.00000000E+00
  0.00000000E+00  0.00000000E+00  0.00000000E+00
  0.00000000E+00  0.00000000E+00  0.00000000E+00
  0.00000000E+00  0.00000000E+00  0.00000000E+00
  0.00000000E+00  0.00000000E+00  0.00000000E+00
  0.00000000E+00  0.00000000E+00  0.00000000E+00
  0.00000000E+00  0.00000000E+00  0.00000000E+00
  0.00000000E+00  0.00000000E+00  0.00000000E+00
  0.00000000E+00  0.00000000E+00  0.00000000E+00
  0.00000000E+00  0.00000000E+00  0.00000000E+00
  0.00000000E+00  0.00000000E+00  0.00000000E+00
  0.00000000E+00  0.00000000E+00  0.00000000E+00
  0.00000000E+00  0.00000000E+00  0.00000000E+00
  0.00000000E+00  0.00000000E+00  0.00000000E+00
  0.00000000E+00  0.00000000E+00  0.00000000E+00
  0.00000000E+00  0.00000000E+00  0.00000000E+00
  0.00000000E+00  0.00000000E+00  0.00000000E+00
  0.00000000E+00  0.00000000E+00  0.00000000E+00
  0.00000000E+00  0.00000000E+00  0.00000000E+00
  0.00000000E+00  0.00000000E+00  0.00000000E+00
  0.00000000E+00  0.00000000E+00  0.00000000E+00
  0.00000000E+00  0.00000000E+00  0.00000000E+00
  0.00000000E+00  0.00000000E+00  0.00000000E+00
  0.00000000E+00  0.00000000E+00  0.00000000E+00
  0.00000000E+00  0.00000000E+00  0.00000000E+00
  0.00000000E+00  0.00000000E+00  0.00000000E+00
  0.00000000E+00  0.00000000E+00  0.00000000E+00
  0.00000000E+00  0.00000000E+00  0.00000000E+00
  0.00000000E+00  0.00000000E+00  0.00000000E+00
  0.00000000E+00  0.00000000E+00  0.00000000E+00
  0.00000000E+00  0.00000000E+00  0.00000000E+00
  0.00000000E+00  0.00000000E+00  0.00000000E+00
  0.00000000E+00  0.00000000E+00  0.00000000E+00
  0.00000000E+00  0.00000000E+00  0.00000000E+00
  0.00000000E+00  0.00000000E+00  0.00000000E+00
  0.00000000E+00  0.00000000E+00  0.00000000E+00
  0.00000000E+00  0.00000000E+00  0.00000000E+00
  0.00000000E+00  0.00000000E+00  0.00000000E+00
  0.00000000E+00  0.00000000E+00  0.00000000E+00
  0.00000000E+00  0.00000000E+00  0.00000000E+00
  0.00000000E+00  0.00000000E+00  0.00000000E+00
