Hf  O  F  H                             
   1.00000000000000     
    13.7225301000000002    0.0000000000000000    0.0000000000000000
     0.0000000000000000   13.7225301000000002    0.0000000000000000
     0.0000000000000000    0.0000000000000000   32.7225301000000002
   Hf   O    F    H 
    72   144    34    34
Direct
  0.1299913497903877  0.8482062887111756  0.4052777733422946
  0.8691900103180001  0.9427472842503719  0.5022935832136411
  0.0161080305212831  0.6249285793656462  0.3772082417680966
  0.8164960976975789  0.6707282164996826  0.3053583021833680
  0.0582692021197387  0.7661913351685209  0.2985739517715466
  0.4147540331830205  0.9199802853772558  0.5517979905234922
  0.6622919545208287  0.5405906847553750  0.2660029461651729
  0.6210588606593718  0.7649224114414048  0.2579523144836935
  0.9974245008479962  0.6560955191434619  0.6888301244197907
  0.2865684580775734  0.0315850645914204  0.4083511286653634
  0.9069724139796983  0.7361646352810232  0.4604863601883321
  0.2787558648648956  0.7239233760485506  0.3174097122555104
  0.0984899197963180  0.5128239133828320  0.2995455958675962
  0.3339897636850703  0.1384894623105134  0.5206582817341487
  0.5592740169108033  0.0152851482980142  0.6770981417550366
  0.2783636970745537  0.6275624665572866  0.6538894403854391
  0.5734444261955222  0.3753505695551492  0.5443551134779780
  0.4675251354261508  0.9533456848260633  0.3277064136349683
  0.2865425463990137  0.6382467651425561  0.4075603607000483
  0.9092729581431386  0.7493399571190982  0.5803888941713430
  0.8517373884521990  0.4280078755638337  0.3011454621035944
  0.9300030272870713  0.0986151313754718  0.5764913429011047
  0.0343614276342789  0.3574995640090613  0.3882718665057096
  0.9417511676557290  0.5321629811721595  0.5966577128386337
  0.1706482255454612  0.5621176556462845  0.5702272014428875
  0.1921847000287433  0.2289037189390578  0.4335546773062660
  0.1182260033711062  0.2993262020095184  0.5539524991221116
  0.7561177545157376  0.5666337944058542  0.5020085066406933
  0.3616729600165942  0.1385547412694646  0.6294682794586313
  0.6571189411877035  0.1486521260635002  0.5990951152894067
  0.5379471278364377  0.2773125186941154  0.6695427668913034
  0.2676740141445422  0.4495220177567256  0.4797312720725045
  0.3177391377579941  0.3611140905956010  0.5981629179460991
  0.8606928951116267  0.9765616742064338  0.4004753903628522
  0.1467336201436385  0.0309243127079038  0.4991419961286681
  0.7553116690685487  0.6432513342316617  0.6871893122046580
  0.5049106914461505  0.6358334067190469  0.3419485377736337
  0.0016121196933323  0.4493837652526657  0.4813730878188484
  0.8747648491101168  0.9045584105127545  0.2883381019129975
  0.4535486031533357  0.8096209766115731  0.4327990757221132
  0.4527314994681124  0.3206936584153774  0.4526263900116824
  0.6038629895672663  0.7983409441226248  0.5037397694844001
  0.3359972423615845  0.7095306756348105  0.5105241351832862
  0.1614815668369987  0.8135726726284870  0.5705998614434733
  0.6434374656671572  0.2069473854443739  0.3823351700020091
  0.5712376652373873  0.9983843113990613  0.4166438674994562
  0.3528697611017221  0.9078313811009813  0.6496080020859096
  0.5271189156617215  0.5566170339859059  0.4614188695792560
  0.5702162944335450  0.1465719278202927  0.5059253622786964
  0.0634666149788913  0.0300733658067427  0.3493831056204479
  0.8099101383136965  0.3619686398429499  0.4193520048349299
  0.7033910158641099  0.9311013022006759  0.5718711456882759
  0.4941435063655953  0.7389276448262284  0.6431888109193089
  0.6798184039112701  0.8570477571083455  0.3469990138162756
  0.2653896885820570  0.9662897888828811  0.3041319946210084
  0.4601181309595933  0.5711580022291401  0.5724790002600555
  0.6866097360731899  0.2500868689264682  0.2867782202674937
  0.6875157753191006  0.6534322330329199  0.5915945110012539
  0.0702774000445473  0.9245103189794878  0.6473368951634495
  0.7483511324007321  0.6056068318160319  0.3982470014328455
  0.2913600472906021  0.4424871087149475  0.3559650980592992
  0.6651393475762108  0.0075583720190770  0.2519516723382382
  0.5355970812527293  0.4093489206816065  0.3622789726890214
  0.4157550343011385  0.1936348210468229  0.3530791468557569
  0.7119300490433740  0.4125152544435778  0.6233446806328630
  0.1173949201021589  0.6514985649829849  0.4762036105405320
  0.8307716268365847  0.2232865467422478  0.6695064948652302
  0.8740697902214606  0.2163552213067433  0.3503886784652002
  0.1015861928472694  0.1889363170482264  0.6413878893570162
  0.8499733723964464  0.3323682698031171  0.5391422919475027
  0.9359954701205666  0.1793273324942174  0.4735381058074499
  0.1761380073248801  0.2251230965028288  0.3282621706011062
  0.3109328720368141  0.2102423868982495  0.3112057224767225
  0.9132620406595415  0.8019629578688653  0.5178680210198245
  0.3571041821872331  0.8557424274524755  0.3292029676271897
  0.5778228045713474  0.8928565746014546  0.4567266034662514
  0.0588160674101077  0.4538332700155255  0.5728527674034362
  0.0628527854241869  0.4884021853461878  0.3585273458496929
  0.0300120302606131  0.0496181704724246  0.6199854591197912
  0.2711694712583689  0.6030402682876737  0.4706967771655156
  0.1831276150318875  0.9510460508786032  0.4444691129873401
  0.0267462463864184  0.2524315641959005  0.3376054301912433
  0.3945788415491846  0.9893853287114897  0.2768681990605497
  0.1162384074059823  0.9082051450287791  0.5301747639301603
  0.4250447239958670  0.8331775978146645  0.6036462648389802
  0.7075918718802620  0.9656855058024316  0.3938414880239782
  0.2845485052555751  0.0037643399090273  0.5260753297474182
  0.4741801119928821  0.2853290017760186  0.7282084371239901
  0.0327307721703892  0.8085335307806425  0.6869199952131130
  0.7585818468653791  0.4938800411076231  0.4398930065142337
  0.8614982715523198  0.4066284541447181  0.5945778042783301
  0.3503620108195959  0.2160564449626284  0.5740085755583417
  0.8489117570086619  0.9737612151737053  0.5633995784049064
  0.3163652814833477  0.7623909915062697  0.4497966900599941
  0.0152968874057686  0.9244967375900186  0.3049187707954622
  0.7306198807962555  0.8915470282899833  0.5098438279557477
  0.4245139894793671  0.5169521100880873  0.3560081089242134
  0.9221994552309057  0.7695379316442363  0.2726999689502942
  0.7820361516438974  0.2145089469441382  0.4020234087852891
  0.0545573793773591  0.7754868960891368  0.4507441105790913
  0.1876853175290132  0.6777528409074498  0.6083105918292332
  0.8810522147739376  0.3691506753564519  0.3604355548416974
  0.5529773026874820  0.7071206147355523  0.4537620532256146
  0.8242823514342211  0.6108207681909764  0.5615894519755606
  0.1814513316882612  0.1766144047481269  0.5295966099154807
  0.5714844201796567  0.2718162555058528  0.3260715308954229
  0.9849142180401877  0.4436858035856489  0.2784386521979553
  0.6728002165324199  0.6772500280233773  0.5268661739403990
  0.5090192448083409  0.2629827181086940  0.4001538345181480
  0.0158863902757049  0.6427698019724105  0.5677359773504618
  0.0002544719804377  0.3191920015289725  0.5136664953340435
  0.4368014603601370  0.1905324733204481  0.4822748808583716
  0.4154704034145649  0.4539553314608251  0.4835038954957833
  0.8968314018115242  0.6685952650654821  0.4029904568047677
  0.4250148381824484  0.6933515283684986  0.3912774171919355
  0.6008293829820580  0.1565558718520143  0.7030049023942923
  0.8127777418246337  0.5544542926663100  0.2663421086456617
  0.8659844270093904  0.8707663443994494  0.4435142132344849
  0.5695129233307723  0.2262647454180048  0.5581645382097823
  0.5728558465396727  0.3065028915703426  0.4890412220806252
  0.8149029105374517  0.1491411764311656  0.6115923972250656
  0.1934668497064052  0.8377458914096452  0.2886129064895193
  0.3538471063703180  0.0406186590211721  0.3495636685564500
  0.7485433238940460  0.5517531466951743  0.6358619299030488
  0.3157663788246742  0.5921614601472641  0.5521825997960152
  0.5787099959822992  0.5144937234445645  0.3148319003723425
  0.8993198327510511  0.9485168383127388  0.6783377091890076
  0.1754181575284058  0.7002758349892667  0.5277149917753065
  0.4684639225192864  0.0523520148800958  0.5276955739454021
  0.1088030691642729  0.3614847507656553  0.4466050749153032
  0.1917065060697870  0.9496936197880135  0.3637035474464859
  0.6512342592951761  0.7067913500504327  0.6501018408932472
  0.6725862518406022  0.0727481996739771  0.5447856380516822
  0.2500349497554134  0.5873941911797874  0.3475308318570922
  0.4015323582909421  0.6677121240752689  0.3003247131580477
  0.4376201717735592  0.4218559070872238  0.5673305248457909
  0.0113967823599336  0.9385270185336982  0.3944125430302792
  0.9862024714910804  0.0500363186245466  0.5165750199813247
  0.2527840659838801  0.4935310197679107  0.6160498878515955
  0.6153673355912253  0.9606447325525401  0.3060259967873828
  0.8393956002848509  0.2761470956889772  0.2940136701744507
  0.9773816404518809  0.6071953802670759  0.4785338230089933
  0.9512793974116912  0.2515002915389202  0.4147732666137679
  0.5442885707368712  0.6920627820205990  0.5861730812235887
  0.4002744175759128  0.3442664381002804  0.3513723502775605
  0.2593300151561798  0.1107608458585113  0.4626863288603177
  0.8669653837051710  0.1868307382566095  0.5322972739542764
  0.1831105966666765  0.2963849645001248  0.6106852371365317
  0.0224276695780386  0.2173742143814349  0.5857669405464168
  0.9027755401158398  0.6721346563315560  0.6345455453992827
  0.6191824354562554  0.8883802768674113  0.2241722679901860
  0.7619274084944789  0.7925470655110691  0.5869510712026283
  0.5279829942391697  0.1470754503463637  0.6347625217119806
  0.7713630306036200  0.6730828169647335  0.4594207761134080
  0.2999076484455719  0.8202234112061709  0.5493520370917495
  0.4036033395818261  0.0424139184836979  0.6773980678393041
  0.3280807562598150  0.1789151165699549  0.4006453579046172
  0.6156235341647448  0.1220293229023777  0.4438202495498955
  0.1312472998518874  0.5112898363836146  0.5010115815795979
  0.5126699409502549  0.4416665871382000  0.4218525810584645
  0.1975327926524751  0.4058027538233345  0.3066086044821383
  0.5425408620860723  0.8747854757500368  0.3768707543187371
  0.8067618972090149  0.5463954685739856  0.3450224000978420
  0.6140131191950104  0.5113878744556729  0.5799079332801239
  0.9832013669127958  0.6292340805048132  0.3159922141802939
  0.7127404290394235  0.3489621284502251  0.5609734492177317
  0.2349880700383656  0.7605871149255015  0.3773391487393033
  0.8702513381290516  0.4669319340654839  0.5125602245614914
  0.8637533172640282  0.0564594129953630  0.4542529183478066
  0.3751005696442825  0.0073761596331837  0.6009303034176768
  0.7116519582336179  0.3954578408426951  0.2736736686341166
  0.7301644153629036  0.1618236232719657  0.3328821333359643
  0.5323847620084040  0.0852598592652657  0.3642505792295047
  0.0191991923235732  0.8381648733953914  0.6011125794452102
  0.3949150717677284  0.2899610213980470  0.6462523566563586
  0.4117388532495238  0.9606679787463193  0.4232904766860377
  0.6045353381924423  0.5901797399104990  0.3920443708391744
  0.6436638221160416  0.1510671024655704  0.2469398101769746
  0.7399977290864548  0.7260166641404600  0.3587768498402312
  0.8288148788487686  0.9032397972885856  0.3452507729278725
  0.9463621171262629  0.4487850836009352  0.4250391296518779
  0.8254005770597495  0.8989308090449443  0.6533152653277391
  0.6237930179509127  0.4957939044847406  0.4987658898151747
  0.0271361831699319  0.5360452157912281  0.6488764792265662
  0.4197429541901585  0.6059112624344666  0.6302528592718940
  0.5990251512539151  0.6376166245487644  0.2308174811310316
  0.6057287884604299  0.4116992249806698  0.6758593665301164
  0.5659558356610039  0.7686728911282871  0.3138173084151993
  0.7469307774407962  0.8106742972935896  0.2868940754261333
  0.6758092554112248  0.3568067664105460  0.3844021020526612
  0.8303386846584123  0.3017680490002799  0.4750435238613759
  0.2818631356270506  0.4808566319042170  0.4153330056045621
  0.8614440652556324  0.7339481839436947  0.7104836014153881
  0.4986071215833350  0.8824427250263223  0.6690178545925067
  0.8066439323587205  0.0004755845412479  0.2541034456583189
  0.1531603581882023  0.1326255456374733  0.3816441866496754
  0.2252989759383968  0.1104238179654255  0.6411080241500117
  0.5707535199384557  0.8826249753443212  0.5534365678753657
  0.1875740891488010  0.3188461578455401  0.3782789963260151
  0.0778283904927584  0.1510407858245711  0.4611520742752310
  0.2420530040484045  0.3877066033813227  0.5406953845009114
  0.9681126645817866  0.2174063947384829  0.6664968007314358
  0.0540913867170887  0.7635771101171089  0.3593113686373662
  0.9227300676067619  0.0775554753157825  0.3581930094167052
  0.6489816027909878  0.0086481785324408  0.6219033493481250
  0.4648895504964473  0.6264656607738740  0.5127356641138400
  0.8121378833490918  0.3754702007799631  0.6709448001617683
  0.1327112450599608  0.6214342549695904  0.4157156897440521
  0.4458822164122837  0.8195620861771298  0.5008431647587651
  0.1530045727783406  0.6511222735179426  0.6915030670237732
  0.3451728415278655  0.7559889416716715  0.6654564920735817
  0.1543094143985834  0.6538016678087826  0.2842093706950120
  0.1562780061280910  0.0800587328016556  0.3035792631829279
  0.6891650326846235  0.2601462731775597  0.6420084268106893
  0.2010617175360755  0.8908869122981513  0.6248331612704281
  0.2993898922936225  0.3122717504931501  0.4608322241687735
  0.5636682158980761  0.3532626275604270  0.6113959546785157
  0.0093918215683140  0.6421558752159197  0.7469040165671464
  0.8167690453559526  0.7451074603711556  0.7958385919998965
  0.3407930060841995  0.3561396316216183  0.7702505740482858
  0.7504310324617303  0.1951473894051807  0.8182936042898739
  0.2635814223866768  0.9107976075109492  0.7050321856413502
  0.5495307060863028  0.5933367723084193  0.8129162676677646
  0.5231545374841948  0.8606314330048368  0.7838810632763921
  0.1878319942835604  0.2693128078748691  0.7653527372201325
  0.6397463435410574  0.7596014944373547  0.8142950861473853
  0.8781420297265091  0.9317030658350631  0.7571917588640725
  0.7078379124316019  0.5362721966927108  0.7236282231196077
  0.5234264137645918  0.1522382542588929  0.7832051604278385
  0.7526474778610998  0.3984547554618970  0.7665956511390881
  0.3116035203304654  0.5372219185235456  0.7006954477788681
  0.8808421546824197  0.5525696187938307  0.6982188866585610
  0.1982698409921055  0.9964098791395578  0.8111410247396835
  0.7349452984384555  0.0111538052771341  0.7947389967322085
  0.0828361184842627  0.0095979782968300  0.6993793303863896
  0.2816376547145265  0.8797393022179169  0.7743644832663448
  0.1507415655504109  0.2415071400349302  0.6948645790190451
  0.3262847669641958  0.0841515636788859  0.7454121178765136
  0.5279560591913902  0.9986148328555207  0.7417683036135975
  0.6774480065338079  0.9453212488899723  0.6983075757500711
  0.0826226860224727  0.0641184799798733  0.7675624729266701
  0.6679219303936007  0.7152234811891924  0.7298050747918838
  0.0618132476797228  0.4260120137800530  0.7103824064514987
  0.7950800505318681  0.2533525048880740  0.7334553534448228
  0.8104478348114720  0.0945639262998731  0.6963216324278921
  0.1949945950307470  0.4855632906962636  0.7509668736659798
  0.5239650291071635  0.4846618641463759  0.7498508704716108
  0.5094510759500356  0.6961220786139277  0.7070249042708719
  0.8276996154023936  0.5565561815761449  0.8149092393823514
  0.2283862784314292  0.6957958777238836  0.7684903858528540
  0.6048662666757462  0.4501675801311695  0.7012007135880547
  0.1715594305043301  0.6649575919681847  0.7201902916606395
  0.8556185502952092  0.7424401938402705  0.7403694390468544
  0.4192337181007982  0.3250222220250785  0.7411480897888928
  0.7465187905019791  0.1276718867960686  0.8115496241868495
  0.2758925970204198  0.8990478834576259  0.7367154633153622
  0.5867949891567736  0.6529439202216575  0.8132926253833452
  0.5307950164476849  0.9204107470697694  0.7646074592774911
  0.2771526706828938  0.3207221830973922  0.7688766733557090
  0.5931429812090970  0.8091549334598479  0.8001286704007547
  0.8781355707553824  0.9350469479293367  0.7273442312926620
  0.7385540461098232  0.4578036629309731  0.7499196150746330
  0.6253928795098713  0.1608160835508854  0.7309892180966532
  0.4916891913428398  0.2364051768437130  0.7496498563464623
  0.2489297008906461  0.5055687233160556  0.7319183955478218
  0.8552267263425037  0.4253704578257930  0.6825361738467736
  0.1468157268454095  0.0303991498802682  0.7909833611175492
  0.7894365162436856  0.9837862754643747  0.7799138219699050
  0.0849344346406330  0.0402905668765078  0.7376882188448984
  0.2435601158948382  0.9384574522265828  0.7930800674371085
  0.1700855381887958  0.2564682764566091  0.7360956251746303
  0.3556754154590043  0.0666787405357551  0.7188996943565993
  0.5156226544997616  0.0887439138529103  0.7702130975195568
  0.7647495581781047  0.9093244214493768  0.6707162413330509
  0.9786765768846639  0.8321523093664922  0.7038038711937744
  0.7477550338634035  0.7549890914240591  0.8020636108544128
  0.1157909485130967  0.4485796565958245  0.7287179914323541
  0.7782325194259068  0.3194214306704554  0.7480093446925790
  0.8697206590847263  0.0173830210941849  0.6815365016319067
  0.0530882237333720  0.4806257623351094  0.6653110470935941
  0.5339792415359961  0.5262672576492393  0.7732234332756036
  0.5812186470865243  0.7070316071414657  0.7195908310979623
  0.8404685982285374  0.6236194503881307  0.8101935770626907
  0.2503163742783223  0.7602674242582113  0.7745192514240695
 
  0.00000000E+00  0.00000000E+00  0.00000000E+00
  0.00000000E+00  0.00000000E+00  0.00000000E+00
  0.00000000E+00  0.00000000E+00  0.00000000E+00
  0.00000000E+00  0.00000000E+00  0.00000000E+00
  0.00000000E+00  0.00000000E+00  0.00000000E+00
  0.00000000E+00  0.00000000E+00  0.00000000E+00
  0.00000000E+00  0.00000000E+00  0.00000000E+00
  0.00000000E+00  0.00000000E+00  0.00000000E+00
  0.00000000E+00  0.00000000E+00  0.00000000E+00
  0.00000000E+00  0.00000000E+00  0.00000000E+00
  0.00000000E+00  0.00000000E+00  0.00000000E+00
  0.00000000E+00  0.00000000E+00  0.00000000E+00
  0.00000000E+00  0.00000000E+00  0.00000000E+00
  0.00000000E+00  0.00000000E+00  0.00000000E+00
  0.00000000E+00  0.00000000E+00  0.00000000E+00
  0.00000000E+00  0.00000000E+00  0.00000000E+00
  0.00000000E+00  0.00000000E+00  0.00000000E+00
  0.00000000E+00  0.00000000E+00  0.00000000E+00
  0.00000000E+00  0.00000000E+00  0.00000000E+00
  0.00000000E+00  0.00000000E+00  0.00000000E+00
  0.00000000E+00  0.00000000E+00  0.00000000E+00
  0.00000000E+00  0.00000000E+00  0.00000000E+00
  0.00000000E+00  0.00000000E+00  0.00000000E+00
  0.00000000E+00  0.00000000E+00  0.00000000E+00
  0.00000000E+00  0.00000000E+00  0.00000000E+00
  0.00000000E+00  0.00000000E+00  0.00000000E+00
  0.00000000E+00  0.00000000E+00  0.00000000E+00
  0.00000000E+00  0.00000000E+00  0.00000000E+00
  0.00000000E+00  0.00000000E+00  0.00000000E+00
  0.00000000E+00  0.00000000E+00  0.00000000E+00
  0.00000000E+00  0.00000000E+00  0.00000000E+00
  0.00000000E+00  0.00000000E+00  0.00000000E+00
  0.00000000E+00  0.00000000E+00  0.00000000E+00
  0.00000000E+00  0.00000000E+00  0.00000000E+00
  0.00000000E+00  0.00000000E+00  0.00000000E+00
  0.00000000E+00  0.00000000E+00  0.00000000E+00
  0.00000000E+00  0.00000000E+00  0.00000000E+00
  0.00000000E+00  0.00000000E+00  0.00000000E+00
  0.00000000E+00  0.00000000E+00  0.00000000E+00
  0.00000000E+00  0.00000000E+00  0.00000000E+00
  0.00000000E+00  0.00000000E+00  0.00000000E+00
  0.00000000E+00  0.00000000E+00  0.00000000E+00
  0.00000000E+00  0.00000000E+00  0.00000000E+00
  0.00000000E+00  0.00000000E+00  0.00000000E+00
  0.00000000E+00  0.00000000E+00  0.00000000E+00
  0.00000000E+00  0.00000000E+00  0.00000000E+00
  0.00000000E+00  0.00000000E+00  0.00000000E+00
  0.00000000E+00  0.00000000E+00  0.00000000E+00
  0.00000000E+00  0.00000000E+00  0.00000000E+00
  0.00000000E+00  0.00000000E+00  0.00000000E+00
  0.00000000E+00  0.00000000E+00  0.00000000E+00
  0.00000000E+00  0.00000000E+00  0.00000000E+00
  0.00000000E+00  0.00000000E+00  0.00000000E+00
  0.00000000E+00  0.00000000E+00  0.00000000E+00
  0.00000000E+00  0.00000000E+00  0.00000000E+00
  0.00000000E+00  0.00000000E+00  0.00000000E+00
  0.00000000E+00  0.00000000E+00  0.00000000E+00
  0.00000000E+00  0.00000000E+00  0.00000000E+00
  0.00000000E+00  0.00000000E+00  0.00000000E+00
  0.00000000E+00  0.00000000E+00  0.00000000E+00
  0.00000000E+00  0.00000000E+00  0.00000000E+00
  0.00000000E+00  0.00000000E+00  0.00000000E+00
  0.00000000E+00  0.00000000E+00  0.00000000E+00
  0.00000000E+00  0.00000000E+00  0.00000000E+00
  0.00000000E+00  0.00000000E+00  0.00000000E+00
  0.00000000E+00  0.00000000E+00  0.00000000E+00
  0.00000000E+00  0.00000000E+00  0.00000000E+00
  0.00000000E+00  0.00000000E+00  0.00000000E+00
  0.00000000E+00  0.00000000E+00  0.00000000E+00
  0.00000000E+00  0.00000000E+00  0.00000000E+00
  0.00000000E+00  0.00000000E+00  0.00000000E+00
  0.00000000E+00  0.00000000E+00  0.00000000E+00
  0.00000000E+00  0.00000000E+00  0.00000000E+00
  0.00000000E+00  0.00000000E+00  0.00000000E+00
  0.00000000E+00  0.00000000E+00  0.00000000E+00
  0.00000000E+00  0.00000000E+00  0.00000000E+00
  0.00000000E+00  0.00000000E+00  0.00000000E+00
  0.00000000E+00  0.00000000E+00  0.00000000E+00
  0.00000000E+00  0.00000000E+00  0.00000000E+00
  0.00000000E+00  0.00000000E+00  0.00000000E+00
  0.00000000E+00  0.00000000E+00  0.00000000E+00
  0.00000000E+00  0.00000000E+00  0.00000000E+00
  0.00000000E+00  0.00000000E+00  0.00000000E+00
  0.00000000E+00  0.00000000E+00  0.00000000E+00
  0.00000000E+00  0.00000000E+00  0.00000000E+00
  0.00000000E+00  0.00000000E+00  0.00000000E+00
  0.00000000E+00  0.00000000E+00  0.00000000E+00
  0.00000000E+00  0.00000000E+00  0.00000000E+00
  0.00000000E+00  0.00000000E+00  0.00000000E+00
  0.00000000E+00  0.00000000E+00  0.00000000E+00
  0.00000000E+00  0.00000000E+00  0.00000000E+00
  0.00000000E+00  0.00000000E+00  0.00000000E+00
  0.00000000E+00  0.00000000E+00  0.00000000E+00
  0.00000000E+00  0.00000000E+00  0.00000000E+00
  0.00000000E+00  0.00000000E+00  0.00000000E+00
  0.00000000E+00  0.00000000E+00  0.00000000E+00
  0.00000000E+00  0.00000000E+00  0.00000000E+00
  0.00000000E+00  0.00000000E+00  0.00000000E+00
  0.00000000E+00  0.00000000E+00  0.00000000E+00
  0.00000000E+00  0.00000000E+00  0.00000000E+00
  0.00000000E+00  0.00000000E+00  0.00000000E+00
  0.00000000E+00  0.00000000E+00  0.00000000E+00
  0.00000000E+00  0.00000000E+00  0.00000000E+00
  0.00000000E+00  0.00000000E+00  0.00000000E+00
  0.00000000E+00  0.00000000E+00  0.00000000E+00
  0.00000000E+00  0.00000000E+00  0.00000000E+00
  0.00000000E+00  0.00000000E+00  0.00000000E+00
  0.00000000E+00  0.00000000E+00  0.00000000E+00
  0.00000000E+00  0.00000000E+00  0.00000000E+00
  0.00000000E+00  0.00000000E+00  0.00000000E+00
  0.00000000E+00  0.00000000E+00  0.00000000E+00
  0.00000000E+00  0.00000000E+00  0.00000000E+00
  0.00000000E+00  0.00000000E+00  0.00000000E+00
  0.00000000E+00  0.00000000E+00  0.00000000E+00
  0.00000000E+00  0.00000000E+00  0.00000000E+00
  0.00000000E+00  0.00000000E+00  0.00000000E+00
  0.00000000E+00  0.00000000E+00  0.00000000E+00
  0.00000000E+00  0.00000000E+00  0.00000000E+00
  0.00000000E+00  0.00000000E+00  0.00000000E+00
  0.00000000E+00  0.00000000E+00  0.00000000E+00
  0.00000000E+00  0.00000000E+00  0.00000000E+00
  0.00000000E+00  0.00000000E+00  0.00000000E+00
  0.00000000E+00  0.00000000E+00  0.00000000E+00
  0.00000000E+00  0.00000000E+00  0.00000000E+00
  0.00000000E+00  0.00000000E+00  0.00000000E+00
  0.00000000E+00  0.00000000E+00  0.00000000E+00
  0.00000000E+00  0.00000000E+00  0.00000000E+00
  0.00000000E+00  0.00000000E+00  0.00000000E+00
  0.00000000E+00  0.00000000E+00  0.00000000E+00
  0.00000000E+00  0.00000000E+00  0.00000000E+00
  0.00000000E+00  0.00000000E+00  0.00000000E+00
  0.00000000E+00  0.00000000E+00  0.00000000E+00
  0.00000000E+00  0.00000000E+00  0.00000000E+00
  0.00000000E+00  0.00000000E+00  0.00000000E+00
  0.00000000E+00  0.00000000E+00  0.00000000E+00
  0.00000000E+00  0.00000000E+00  0.00000000E+00
  0.00000000E+00  0.00000000E+00  0.00000000E+00
  0.00000000E+00  0.00000000E+00  0.00000000E+00
  0.00000000E+00  0.00000000E+00  0.00000000E+00
  0.00000000E+00  0.00000000E+00  0.00000000E+00
  0.00000000E+00  0.00000000E+00  0.00000000E+00
  0.00000000E+00  0.00000000E+00  0.00000000E+00
  0.00000000E+00  0.00000000E+00  0.00000000E+00
  0.00000000E+00  0.00000000E+00  0.00000000E+00
  0.00000000E+00  0.00000000E+00  0.00000000E+00
  0.00000000E+00  0.00000000E+00  0.00000000E+00
  0.00000000E+00  0.00000000E+00  0.00000000E+00
  0.00000000E+00  0.00000000E+00  0.00000000E+00
  0.00000000E+00  0.00000000E+00  0.00000000E+00
  0.00000000E+00  0.00000000E+00  0.00000000E+00
  0.00000000E+00  0.00000000E+00  0.00000000E+00
  0.00000000E+00  0.00000000E+00  0.00000000E+00
  0.00000000E+00  0.00000000E+00  0.00000000E+00
  0.00000000E+00  0.00000000E+00  0.00000000E+00
  0.00000000E+00  0.00000000E+00  0.00000000E+00
  0.00000000E+00  0.00000000E+00  0.00000000E+00
  0.00000000E+00  0.00000000E+00  0.00000000E+00
  0.00000000E+00  0.00000000E+00  0.00000000E+00
  0.00000000E+00  0.00000000E+00  0.00000000E+00
  0.00000000E+00  0.00000000E+00  0.00000000E+00
  0.00000000E+00  0.00000000E+00  0.00000000E+00
  0.00000000E+00  0.00000000E+00  0.00000000E+00
  0.00000000E+00  0.00000000E+00  0.00000000E+00
  0.00000000E+00  0.00000000E+00  0.00000000E+00
  0.00000000E+00  0.00000000E+00  0.00000000E+00
  0.00000000E+00  0.00000000E+00  0.00000000E+00
  0.00000000E+00  0.00000000E+00  0.00000000E+00
  0.00000000E+00  0.00000000E+00  0.00000000E+00
  0.00000000E+00  0.00000000E+00  0.00000000E+00
  0.00000000E+00  0.00000000E+00  0.00000000E+00
  0.00000000E+00  0.00000000E+00  0.00000000E+00
  0.00000000E+00  0.00000000E+00  0.00000000E+00
  0.00000000E+00  0.00000000E+00  0.00000000E+00
  0.00000000E+00  0.00000000E+00  0.00000000E+00
  0.00000000E+00  0.00000000E+00  0.00000000E+00
  0.00000000E+00  0.00000000E+00  0.00000000E+00
  0.00000000E+00  0.00000000E+00  0.00000000E+00
  0.00000000E+00  0.00000000E+00  0.00000000E+00
  0.00000000E+00  0.00000000E+00  0.00000000E+00
  0.00000000E+00  0.00000000E+00  0.00000000E+00
  0.00000000E+00  0.00000000E+00  0.00000000E+00
  0.00000000E+00  0.00000000E+00  0.00000000E+00
  0.00000000E+00  0.00000000E+00  0.00000000E+00
  0.00000000E+00  0.00000000E+00  0.00000000E+00
  0.00000000E+00  0.00000000E+00  0.00000000E+00
  0.00000000E+00  0.00000000E+00  0.00000000E+00
  0.00000000E+00  0.00000000E+00  0.00000000E+00
  0.00000000E+00  0.00000000E+00  0.00000000E+00
  0.00000000E+00  0.00000000E+00  0.00000000E+00
  0.00000000E+00  0.00000000E+00  0.00000000E+00
  0.00000000E+00  0.00000000E+00  0.00000000E+00
  0.00000000E+00  0.00000000E+00  0.00000000E+00
  0.00000000E+00  0.00000000E+00  0.00000000E+00
  0.00000000E+00  0.00000000E+00  0.00000000E+00
  0.00000000E+00  0.00000000E+00  0.00000000E+00
  0.00000000E+00  0.00000000E+00  0.00000000E+00
  0.00000000E+00  0.00000000E+00  0.00000000E+00
  0.00000000E+00  0.00000000E+00  0.00000000E+00
  0.00000000E+00  0.00000000E+00  0.00000000E+00
  0.00000000E+00  0.00000000E+00  0.00000000E+00
  0.00000000E+00  0.00000000E+00  0.00000000E+00
  0.00000000E+00  0.00000000E+00  0.00000000E+00
  0.00000000E+00  0.00000000E+00  0.00000000E+00
  0.00000000E+00  0.00000000E+00  0.00000000E+00
  0.00000000E+00  0.00000000E+00  0.00000000E+00
  0.00000000E+00  0.00000000E+00  0.00000000E+00
  0.00000000E+00  0.00000000E+00  0.00000000E+00
  0.00000000E+00  0.00000000E+00  0.00000000E+00
  0.00000000E+00  0.00000000E+00  0.00000000E+00
  0.00000000E+00  0.00000000E+00  0.00000000E+00
  0.00000000E+00  0.00000000E+00  0.00000000E+00
  0.00000000E+00  0.00000000E+00  0.00000000E+00
  0.00000000E+00  0.00000000E+00  0.00000000E+00
  0.00000000E+00  0.00000000E+00  0.00000000E+00
  0.00000000E+00  0.00000000E+00  0.00000000E+00
  0.00000000E+00  0.00000000E+00  0.00000000E+00
  0.00000000E+00  0.00000000E+00  0.00000000E+00
  0.00000000E+00  0.00000000E+00  0.00000000E+00
  0.00000000E+00  0.00000000E+00  0.00000000E+00
  0.00000000E+00  0.00000000E+00  0.00000000E+00
  0.00000000E+00  0.00000000E+00  0.00000000E+00
  0.00000000E+00  0.00000000E+00  0.00000000E+00
  0.00000000E+00  0.00000000E+00  0.00000000E+00
  0.00000000E+00  0.00000000E+00  0.00000000E+00
  0.00000000E+00  0.00000000E+00  0.00000000E+00
  0.00000000E+00  0.00000000E+00  0.00000000E+00
  0.00000000E+00  0.00000000E+00  0.00000000E+00
  0.00000000E+00  0.00000000E+00  0.00000000E+00
  0.00000000E+00  0.00000000E+00  0.00000000E+00
  0.00000000E+00  0.00000000E+00  0.00000000E+00
  0.00000000E+00  0.00000000E+00  0.00000000E+00
  0.00000000E+00  0.00000000E+00  0.00000000E+00
  0.00000000E+00  0.00000000E+00  0.00000000E+00
  0.00000000E+00  0.00000000E+00  0.00000000E+00
  0.00000000E+00  0.00000000E+00  0.00000000E+00
  0.00000000E+00  0.00000000E+00  0.00000000E+00
  0.00000000E+00  0.00000000E+00  0.00000000E+00
  0.00000000E+00  0.00000000E+00  0.00000000E+00
  0.00000000E+00  0.00000000E+00  0.00000000E+00
  0.00000000E+00  0.00000000E+00  0.00000000E+00
  0.00000000E+00  0.00000000E+00  0.00000000E+00
  0.00000000E+00  0.00000000E+00  0.00000000E+00
  0.00000000E+00  0.00000000E+00  0.00000000E+00
  0.00000000E+00  0.00000000E+00  0.00000000E+00
  0.00000000E+00  0.00000000E+00  0.00000000E+00
  0.00000000E+00  0.00000000E+00  0.00000000E+00
  0.00000000E+00  0.00000000E+00  0.00000000E+00
  0.00000000E+00  0.00000000E+00  0.00000000E+00
  0.00000000E+00  0.00000000E+00  0.00000000E+00
  0.00000000E+00  0.00000000E+00  0.00000000E+00
  0.00000000E+00  0.00000000E+00  0.00000000E+00
  0.00000000E+00  0.00000000E+00  0.00000000E+00