Hf  O  F  H                             
   1.00000000000000     
    13.7225301000000002    0.0000000000000000    0.0000000000000000
     0.0000000000000000   13.7225301000000002    0.0000000000000000
     0.0000000000000000    0.0000000000000000   32.7225301000000002
   Hf   O    F    H 
    72   144    16    16
Direct
  0.1758769337885724  0.8295476794006346  0.4119800495846725
  0.8477983947567902  0.9417703683264241  0.5099180501646657
  0.0268785592855079  0.6495807344965095  0.3940119773696704
  0.8791122333297958  0.6276831471008476  0.2938970620815426
  0.0806283820469123  0.7769789335506444  0.3078884196626997
  0.4033974766044098  0.9492353747059379  0.5491414641405820
  0.6503349693285013  0.5126495807019901  0.2716589008315573
  0.6458875308241754  0.7433623510980810  0.2659286970256789
  0.0120331585111186  0.6328263910821881  0.6864450272912844
  0.2909879299066846  0.0448753354967638  0.4125315387308358
  0.9218502524662807  0.7340165842323357  0.4726917121616752
  0.3001564842924882  0.7479034941286847  0.3085184672224552
  0.1125035866096146  0.5270119621529987  0.3166688523019742
  0.3323606601125736  0.1742634621318257  0.5161191922094153
  0.5274711561852449  0.0274222207590985  0.6828579429087731
  0.2846406468054849  0.6505445890355329  0.6472853646495207
  0.5617561290515382  0.3663040291658735  0.5383476749489541
  0.4729513096485157  0.9755873663877305  0.3307670357620341
  0.3098915158071694  0.6201483507531369  0.3992616779760308
  0.9064249856828337  0.7333714949128555  0.5785230390946614
  0.8534575471575870  0.4171710496395336  0.3165361992532287
  0.9009101432111595  0.1007017311811777  0.5802694321404649
  0.0353168136321772  0.3791359195764195  0.4035501140940556
  0.9113278587897190  0.5036016403233268  0.6008524048318236
  0.1259482441021712  0.5557368932502851  0.5870978133059228
  0.1545666036959283  0.2265917212382256  0.4504870675287423
  0.1075535237020679  0.2890969298935284  0.5606754211080888
  0.7469771276091735  0.5468537900534585  0.5222168246426102
  0.3507677998962551  0.1546509642745168  0.6301227624235369
  0.6463002244474623  0.1511386108274663  0.6137632108477793
  0.5256418903250243  0.2875615902114768  0.6782757117498095
  0.2592470349803972  0.4442135050890503  0.4893973437049129
  0.3088387956468989  0.3648664138194836  0.6013610585107969
  0.8608898259331947  0.9628849708225959  0.4087372546632089
  0.1548211267070172  0.0227444986681434  0.5000973143241115
  0.7951160187559838  0.7618876796409055  0.6744095065657091
  0.5085484216457565  0.6258657148063387  0.3391047332930655
  0.0126754170023745  0.4632349054166262  0.5034901555747427
  0.8800232452001284  0.8777256112788470  0.2958446045975970
  0.4463215839179001  0.8076278151266415  0.4335032868891723
  0.4272802117854460  0.3274919369661115  0.4470640189994097
  0.5891602335887286  0.8018305151181397  0.5109563282620626
  0.3430534872050900  0.7155514188971526  0.5331518444595155
  0.1558590655428113  0.8264075272898794  0.5795393923437528
  0.6711044985679253  0.2313700800298029  0.4321309613839927
  0.5641967865179958  0.0005898261982497  0.4224357235279129
  0.3113259479692370  0.9418523383805684  0.6490002452215968
  0.4937165258319778  0.5560246456042446  0.4791086417683560
  0.5804800063881944  0.1475174078303313  0.5174758772450091
  0.0621570473112576  0.0212751769174289  0.3622207822297707
  0.8053330923125751  0.4155428069384592  0.4349731728945554
  0.6832392016774400  0.9219138563481245  0.5886264528336668
  0.5086548397789232  0.7876419365498712  0.6633681947794148
  0.6706763423288566  0.8559211885248099  0.3607176086908415
  0.2674119045467091 -0.0125115512306385  0.3084551633832149
  0.4598285090625692  0.5666210579583393  0.5955297945553061
  0.6887839069231432  0.2409755857169123  0.3173610568564451
  0.6665294489338267  0.6808966993267594  0.6015212274164976
  0.0139193675407436  0.9075425878789598  0.6528410740494287
  0.7472839262019131  0.6221122406305850  0.3932128378431670
  0.2876233388931779  0.4132704218146647  0.3651495735101262
  0.6745957917815393  0.0001208156333311  0.2608041936410451
  0.5547395386603434  0.4203142194817482  0.3733583066550470
  0.4354770450374315  0.2048073098051704  0.3638494862667631
  0.6685313139664123  0.4878060830760287  0.6594833990755414
  0.1539485289209186  0.6580846499982586  0.4803549470027862
  0.8283711451997761  0.2928841481298044  0.6583862533058881
  0.8847986507669583  0.2240327951380263  0.3758276438974228
  0.0909109685834887  0.1479615816868660  0.6448217954525984
  0.8211077950642297  0.3308630109703742  0.5445885364956802
  0.9266341761107283  0.1725357032740927  0.4809326755420811
  0.1635375298028384  0.2333215228218583  0.3411916523091109
  0.3074720013113715  0.2627432438401193  0.3359910482059834
  0.9256865425161496  0.8212725033649353  0.5252494434458269
  0.3661358515872407  0.8738999273404745  0.3274693049141744
  0.5677677504117582  0.8835275975093914  0.4593870552042233
  0.0497722203983800  0.4291044014799378  0.5675658405427909
  0.0539647749737841  0.5088089935090196  0.3746683008354759
 -0.0105006733592498  0.0385891604549616  0.6233782272909973
  0.3042043932808819  0.6055427159006471  0.4823905300882036
  0.1978262458573316  0.9474499635914480  0.4488970291503513
  0.0226819681188896  0.2741081615439555  0.3516915767973416
  0.3946136011553318  0.0197636092748520  0.2812459524457625
  0.1163169835316810  0.9206702056080575  0.5375945672630386
  0.4622304403119636  0.9154752700570666  0.6466982190744797
  0.7015998981300997  0.9673225782322717  0.4012488641641158
  0.2848110450220631  0.0302308817668308  0.5291506909786918
  0.4451322270669750  0.2312520987617783  0.7281046456894316
  0.0617163568230407  0.7846656629974855  0.6874475858383466
  0.7503612579005385  0.5498450899801910  0.4446368864857910
  0.8781173864170385  0.3562014819276162  0.6009847092735131
  0.3484388062517603  0.2203294297581166  0.5736929790451204
  0.8176940124741996  0.9797096455408320  0.5720862419316465
  0.2990904069138434  0.7701245582982771  0.4392681399958218
  0.0137476571135102  0.9223934620196732  0.3157152587416265
  0.7108470559123797  0.8867378209498727  0.5199243452988482
  0.4084098218823699  0.5275064318487869  0.3650095629038388
  0.9616906503177309  0.7618240336977832  0.2722138323813834
  0.8228081666625512  0.2526077684430842  0.4384924158529818
  0.0701836029230351  0.7715248055216916  0.4525896663895567
  0.1611444989061084  0.6869926294076890  0.6122466640060101
  0.8848432111295320  0.3834025781335894  0.3782102004298977
  0.5238432093395748  0.6986652912201522  0.4649827492705015
  0.7916256769398904  0.5908800018041238  0.5826351491308502
  0.1729324635865603  0.1954232161547119  0.5211150155103993
  0.5561559371075290  0.2833003018848380  0.3370455040894784
  0.9740819308842333  0.4889309964848180  0.2930423041454134
  0.6488797479111847  0.6786143136113519  0.5375456932987589
  0.5356050436782785  0.2545566157204512  0.4153408470039048
 -0.0073019002689343  0.6178852763039693  0.5654370478687301
  0.9759684973783873  0.3037687545610911  0.5147761798878545
  0.4632434839729688  0.2521073120275975  0.5019399813379967
  0.4094917137133484  0.4350840086923109  0.4956855205122612
  0.8925816600197026  0.6794186294465531  0.4133472942837888
  0.4418736341778088  0.6981267764033608  0.3907036809594337
  0.6196729872643324  0.1607581643515372  0.6879019545669987
  0.8025908022161092  0.5219981134842185  0.2668588829974680
  0.8557950278442433  0.8614354929697532  0.4533052936376611
  0.5835960118881145  0.2391485101468057  0.5686944932491228
  0.6387363910871177  0.2766823334142025  0.4911021686120965
  0.7924054417243189  0.1824456615126927  0.6111980492853389
  0.2018326549623057  0.8579872562053752  0.2873781073762677
  0.3501770496259659  0.0634622782985639  0.3531596888962174
  0.7093935915233498  0.6349012996155439  0.6603927114138727
  0.3330639706702608  0.6505619641136922  0.5874927357799113
  0.5426149370824216  0.4903204803747813  0.3124432038171273
  0.8895251245743325  0.8901298167511627  0.6909789169959066
  0.1936383710082293  0.7320641227552248  0.5297562164728263
  0.4566939213155113  0.0704576387015836  0.5169914535842245
  0.1199176652633671  0.3846400125747105  0.4672375555396665
  0.2005175100838871  0.9475606495932457  0.3694573547483864
  0.6513518326699809  0.8119748867022597  0.6393743416602637
  0.6444026335085661  0.0652441061019038  0.5619093367408771
  0.2351627579759862  0.5500120057484272  0.3517627509539353
  0.4160606456310276  0.6731859313645946  0.2956182744981007
  0.4469969184981326  0.4190012147906347  0.5785504756435396
  0.0093105682582556  0.9388628960880488  0.4051856782707992
  0.9502792031296361  0.0521032413284573  0.5248813813083564
  0.2409045858855202  0.4921324144766249  0.6145273305027117
  0.6192807694082439 -0.0439793019378469  0.3127595620724593
  0.8437742387450599  0.2659915857269042  0.3167299235436173
  0.0140889589199100  0.6062047335020021  0.4756301305930342
 -0.0009322724625784  0.2472360134171260  0.4285401743199834
  0.5190480353609566  0.7018732490999154  0.6120211252082640
  0.4159001032184114  0.3512336575062667  0.3822947133415882
  0.2523784655512944  0.1171758061126076  0.4638813690950533
  0.8282110546747599  0.1889947333598342  0.5297075696580953
  0.1859988091197567  0.2722134890414142  0.6138733798839738
  0.0228561012568691  0.1919287906563918  0.5885596683511265
  0.9080815905551454  0.6851688405088829  0.6406577701252286
  0.6323226283845559  0.8721252901756441  0.2365331211483407
  0.7718644909273090  0.7877458336820141  0.5886750438244376
  0.5045727800031442  0.1628040473816287  0.6380074981492774
  0.8313485482575412  0.6573112403861233  0.5052917783540775
  0.3113569980289652  0.8435633949522171  0.5721637286392998
  0.3811400944131357  0.0574769683719822  0.6792676904359134
  0.3719128832494338  0.1780211838953372  0.4165690224620841
  0.6260174664925304  0.1010894328294722  0.4597583796031104
  0.1496642051656887  0.5340577433068965  0.5182953925325970
  0.5109305879138136  0.4536496718684325  0.4329301410883841
  0.1711908768409203  0.3910604114325196  0.3191766081814496
  0.5294387537326460  0.8838125021458586  0.3803924919464883
  0.8277905947290746  0.5618790358976261  0.3457680337194236
  0.6048238283594762  0.5361512414353680  0.6075408919271656
  0.0046576973909292  0.6484975815668289  0.3303448521828845
  0.6954267476834225  0.3976529125885648  0.5610484271761536
  0.2565432096479277  0.7389751553217785  0.3647541568089320
  0.8845380470635730  0.4753104642468567  0.5383004619394137
  0.8492304386738280  0.0507117929023716  0.4581296731198506
  0.3757555029580231  0.0227985486919923  0.6000330977317786
  0.7092981815046886  0.3889833812854263  0.3060492487798409
  0.7329239461078665  0.1875691462647588  0.3729017934606477
  0.5295149116250760  0.0811691525019434  0.3693858676310243
  0.0115208515143369  0.8245954752299222  0.6001663567250822
  0.3840301892436070  0.2984892216121507  0.6500524788157360
  0.4075170511748119  0.9625308420077975  0.4282388857916688
  0.6185451762770797  0.5621167355170511  0.3773650320800093
  0.6623360965565487  0.1431912248175612  0.2737241924791644
  0.6976392688637360  0.7523376437246140  0.3988678584629426
  0.8224292063332573  0.8862051653512278  0.3512854799766005
  0.9486002147281787  0.4453198982328841  0.4467632765851327
  0.8551784879488016  0.8895405902757267  0.6472034594120820
  0.6031675447615862  0.4965896102153293  0.5083436555302173
  0.0332965903432843  0.5337474566801331  0.6353219376531268
  0.4010642930222071  0.5627796045354035  0.6522863430189457
  0.6197326185171932  0.6234282883812970  0.2350599576291920
  0.5265448243797116  0.4382750556073151  0.6753852588668893
  0.5922339107132331  0.7564546407874286  0.3221868743448894
  0.7850517942063314  0.7532604264814751  0.2876509346786156
  0.6835703644180330  0.3722591445679997  0.4024874265991297
  0.7785652191291413  0.4035623642157179  0.4923116805172690
  0.2904717361167599  0.4690736635295084  0.4250086604609350
  0.8822042279397605  0.6872350984328545  0.7152172148641850
  0.5594397378046320  0.8900613351028491  0.7081133676430522
  0.8135747638668451 -0.0229820749859962  0.2636744354578411
  0.1562019630582091  0.1345530297307135  0.3922097343766957
  0.2225032494500747  0.0827914127871975  0.6387302249476613
  0.5491662572734156  0.8828855323708042  0.5614661252265376
  0.1790759429506294  0.3219442827847706  0.3955539134896562
  0.0616431970929517  0.1158153537655362  0.4694678146807086
  0.2396988615150707  0.3748849448905943  0.5452473730739726
  0.9758956923326768  0.2455549591955897  0.6656181932214879
  0.0741899646568924  0.7779753159859601  0.3698982551413152
  0.9244651217440055  0.0827314860440731  0.3706627411840664
  0.6412367088703617  0.0120531326631608  0.6362795980890549
  0.4545826204595142  0.6153761731096080  0.5347456955649170
  0.8230679445593934  0.4655356964030514  0.6557415521281930
  0.1649734768877411  0.6349391137718240  0.4190826387419596
  0.4250258298075091  0.8250614635153457  0.5066503636481684
  0.1791890336215344  0.6028052318431713  0.6905297367346405
  0.3473948050958958  0.7766719820426462  0.6623075551902662
  0.1710036247428751  0.6624095526700156  0.2908389047676892
  0.1562674332998470  0.0941852016812811  0.3137236940566834
  0.6710111784811056  0.3287738166107558  0.6521595641265056
  0.1712945043811945  0.8988102987438357  0.6324919363183586
  0.2894612868458079  0.2972247145629365  0.4712554707807505
  0.5061294664177873  0.6940153461831731  0.7126265188567120
  0.0591942097547109  0.6516817481542572  0.7440173434774657
  0.7204417358121539  0.7961105370664692  0.7237155027807519
  0.2678661261137384  0.2242728334354133  0.7476690904380933
  0.8425433034970455  0.3431850647705431  0.7134569397350655
  0.2670811316950725  0.9198214962370831  0.7119502023129205
  0.2666960091217585  0.7839733855006858  0.7546354798500965
  0.5174850770151460  0.0623105490097009  0.7420228688115229
  0.1403911607217153  0.2057647619562880  0.6979969152732975
  0.4143799827423802  0.7117052159688017  0.7718757502413166
  0.0723282159720832  0.0217655877095393  0.6878464813640071
  0.6791402859347077  0.4814186252078244  0.7217512727184994
  0.7979963911218153  0.1720187511517514  0.6903898537649396
  0.6058546982178322  0.3307357190905517  0.7347460245319439
  0.2329607870879908  0.4190086167037486  0.7042176298274979
  0.9530240969533290  0.5106097389135669  0.7074520258301517
  0.4681329271656398  0.4839357955600004  0.6713046221153961
  0.1804401697222536  0.6233277360200119  0.7194034289952118
  0.8761289916341659  0.6855786970007887  0.7447669948308130
  0.3719454484743875  0.2331847955760650  0.7336387238542472
  0.9931448233910123  0.2622439375544748  0.6938340321379792
  0.2692186048045321  0.8573547368060901  0.7308405409847779
  0.3350029274083932  0.7524850083064117  0.7630656832433141
  0.6168564343139518  0.8703316486437750  0.7242618516098052
  0.2140916342170140  0.2183779878414690  0.7271525904118510
  0.4589682278522442  0.7022353533508020  0.7456558974278824
  0.0748742096163801  0.7924992927639110  0.7166214962348015
  0.6411645558386785  0.3989176108754459  0.7326326063818431
  0.6852029873640448  0.1638297590791328  0.7011293621010516
  0.4722477000192724  0.1704025811023539  0.7411698285069873
  0.2062712173820927  0.4824475635170368  0.6983184989328465
  0.8613742918377478  0.4828447119007734  0.6815255652561035
 
  0.00000000E+00  0.00000000E+00  0.00000000E+00
  0.00000000E+00  0.00000000E+00  0.00000000E+00
  0.00000000E+00  0.00000000E+00  0.00000000E+00
  0.00000000E+00  0.00000000E+00  0.00000000E+00
  0.00000000E+00  0.00000000E+00  0.00000000E+00
  0.00000000E+00  0.00000000E+00  0.00000000E+00
  0.00000000E+00  0.00000000E+00  0.00000000E+00
  0.00000000E+00  0.00000000E+00  0.00000000E+00
  0.00000000E+00  0.00000000E+00  0.00000000E+00
  0.00000000E+00  0.00000000E+00  0.00000000E+00
  0.00000000E+00  0.00000000E+00  0.00000000E+00
  0.00000000E+00  0.00000000E+00  0.00000000E+00
  0.00000000E+00  0.00000000E+00  0.00000000E+00
  0.00000000E+00  0.00000000E+00  0.00000000E+00
  0.00000000E+00  0.00000000E+00  0.00000000E+00
  0.00000000E+00  0.00000000E+00  0.00000000E+00
  0.00000000E+00  0.00000000E+00  0.00000000E+00
  0.00000000E+00  0.00000000E+00  0.00000000E+00
  0.00000000E+00  0.00000000E+00  0.00000000E+00
  0.00000000E+00  0.00000000E+00  0.00000000E+00
  0.00000000E+00  0.00000000E+00  0.00000000E+00
  0.00000000E+00  0.00000000E+00  0.00000000E+00
  0.00000000E+00  0.00000000E+00  0.00000000E+00
  0.00000000E+00  0.00000000E+00  0.00000000E+00
  0.00000000E+00  0.00000000E+00  0.00000000E+00
  0.00000000E+00  0.00000000E+00  0.00000000E+00
  0.00000000E+00  0.00000000E+00  0.00000000E+00
  0.00000000E+00  0.00000000E+00  0.00000000E+00
  0.00000000E+00  0.00000000E+00  0.00000000E+00
  0.00000000E+00  0.00000000E+00  0.00000000E+00
  0.00000000E+00  0.00000000E+00  0.00000000E+00
  0.00000000E+00  0.00000000E+00  0.00000000E+00
  0.00000000E+00  0.00000000E+00  0.00000000E+00
  0.00000000E+00  0.00000000E+00  0.00000000E+00
  0.00000000E+00  0.00000000E+00  0.00000000E+00
  0.00000000E+00  0.00000000E+00  0.00000000E+00
  0.00000000E+00  0.00000000E+00  0.00000000E+00
  0.00000000E+00  0.00000000E+00  0.00000000E+00
  0.00000000E+00  0.00000000E+00  0.00000000E+00
  0.00000000E+00  0.00000000E+00  0.00000000E+00
  0.00000000E+00  0.00000000E+00  0.00000000E+00
  0.00000000E+00  0.00000000E+00  0.00000000E+00
  0.00000000E+00  0.00000000E+00  0.00000000E+00
  0.00000000E+00  0.00000000E+00  0.00000000E+00
  0.00000000E+00  0.00000000E+00  0.00000000E+00
  0.00000000E+00  0.00000000E+00  0.00000000E+00
  0.00000000E+00  0.00000000E+00  0.00000000E+00
  0.00000000E+00  0.00000000E+00  0.00000000E+00
  0.00000000E+00  0.00000000E+00  0.00000000E+00
  0.00000000E+00  0.00000000E+00  0.00000000E+00
  0.00000000E+00  0.00000000E+00  0.00000000E+00
  0.00000000E+00  0.00000000E+00  0.00000000E+00
  0.00000000E+00  0.00000000E+00  0.00000000E+00
  0.00000000E+00  0.00000000E+00  0.00000000E+00
  0.00000000E+00  0.00000000E+00  0.00000000E+00
  0.00000000E+00  0.00000000E+00  0.00000000E+00
  0.00000000E+00  0.00000000E+00  0.00000000E+00
  0.00000000E+00  0.00000000E+00  0.00000000E+00
  0.00000000E+00  0.00000000E+00  0.00000000E+00
  0.00000000E+00  0.00000000E+00  0.00000000E+00
  0.00000000E+00  0.00000000E+00  0.00000000E+00
  0.00000000E+00  0.00000000E+00  0.00000000E+00
  0.00000000E+00  0.00000000E+00  0.00000000E+00
  0.00000000E+00  0.00000000E+00  0.00000000E+00
  0.00000000E+00  0.00000000E+00  0.00000000E+00
  0.00000000E+00  0.00000000E+00  0.00000000E+00
  0.00000000E+00  0.00000000E+00  0.00000000E+00
  0.00000000E+00  0.00000000E+00  0.00000000E+00
  0.00000000E+00  0.00000000E+00  0.00000000E+00
  0.00000000E+00  0.00000000E+00  0.00000000E+00
  0.00000000E+00  0.00000000E+00  0.00000000E+00
  0.00000000E+00  0.00000000E+00  0.00000000E+00
  0.00000000E+00  0.00000000E+00  0.00000000E+00
  0.00000000E+00  0.00000000E+00  0.00000000E+00
  0.00000000E+00  0.00000000E+00  0.00000000E+00
  0.00000000E+00  0.00000000E+00  0.00000000E+00
  0.00000000E+00  0.00000000E+00  0.00000000E+00
  0.00000000E+00  0.00000000E+00  0.00000000E+00
  0.00000000E+00  0.00000000E+00  0.00000000E+00
  0.00000000E+00  0.00000000E+00  0.00000000E+00
  0.00000000E+00  0.00000000E+00  0.00000000E+00
  0.00000000E+00  0.00000000E+00  0.00000000E+00
  0.00000000E+00  0.00000000E+00  0.00000000E+00
  0.00000000E+00  0.00000000E+00  0.00000000E+00
  0.00000000E+00  0.00000000E+00  0.00000000E+00
  0.00000000E+00  0.00000000E+00  0.00000000E+00
  0.00000000E+00  0.00000000E+00  0.00000000E+00
  0.00000000E+00  0.00000000E+00  0.00000000E+00
  0.00000000E+00  0.00000000E+00  0.00000000E+00
  0.00000000E+00  0.00000000E+00  0.00000000E+00
  0.00000000E+00  0.00000000E+00  0.00000000E+00
  0.00000000E+00  0.00000000E+00  0.00000000E+00
  0.00000000E+00  0.00000000E+00  0.00000000E+00
  0.00000000E+00  0.00000000E+00  0.00000000E+00
  0.00000000E+00  0.00000000E+00  0.00000000E+00
  0.00000000E+00  0.00000000E+00  0.00000000E+00
  0.00000000E+00  0.00000000E+00  0.00000000E+00
  0.00000000E+00  0.00000000E+00  0.00000000E+00
  0.00000000E+00  0.00000000E+00  0.00000000E+00
  0.00000000E+00  0.00000000E+00  0.00000000E+00
  0.00000000E+00  0.00000000E+00  0.00000000E+00
  0.00000000E+00  0.00000000E+00  0.00000000E+00
  0.00000000E+00  0.00000000E+00  0.00000000E+00
  0.00000000E+00  0.00000000E+00  0.00000000E+00
  0.00000000E+00  0.00000000E+00  0.00000000E+00
  0.00000000E+00  0.00000000E+00  0.00000000E+00
  0.00000000E+00  0.00000000E+00  0.00000000E+00
  0.00000000E+00  0.00000000E+00  0.00000000E+00
  0.00000000E+00  0.00000000E+00  0.00000000E+00
  0.00000000E+00  0.00000000E+00  0.00000000E+00
  0.00000000E+00  0.00000000E+00  0.00000000E+00
  0.00000000E+00  0.00000000E+00  0.00000000E+00
  0.00000000E+00  0.00000000E+00  0.00000000E+00
  0.00000000E+00  0.00000000E+00  0.00000000E+00
  0.00000000E+00  0.00000000E+00  0.00000000E+00
  0.00000000E+00  0.00000000E+00  0.00000000E+00
  0.00000000E+00  0.00000000E+00  0.00000000E+00
  0.00000000E+00  0.00000000E+00  0.00000000E+00
  0.00000000E+00  0.00000000E+00  0.00000000E+00
  0.00000000E+00  0.00000000E+00  0.00000000E+00
  0.00000000E+00  0.00000000E+00  0.00000000E+00
  0.00000000E+00  0.00000000E+00  0.00000000E+00
  0.00000000E+00  0.00000000E+00  0.00000000E+00
  0.00000000E+00  0.00000000E+00  0.00000000E+00
  0.00000000E+00  0.00000000E+00  0.00000000E+00
  0.00000000E+00  0.00000000E+00  0.00000000E+00
  0.00000000E+00  0.00000000E+00  0.00000000E+00
  0.00000000E+00  0.00000000E+00  0.00000000E+00
  0.00000000E+00  0.00000000E+00  0.00000000E+00
  0.00000000E+00  0.00000000E+00  0.00000000E+00
  0.00000000E+00  0.00000000E+00  0.00000000E+00
  0.00000000E+00  0.00000000E+00  0.00000000E+00
  0.00000000E+00  0.00000000E+00  0.00000000E+00
  0.00000000E+00  0.00000000E+00  0.00000000E+00
  0.00000000E+00  0.00000000E+00  0.00000000E+00
  0.00000000E+00  0.00000000E+00  0.00000000E+00
  0.00000000E+00  0.00000000E+00  0.00000000E+00
  0.00000000E+00  0.00000000E+00  0.00000000E+00
  0.00000000E+00  0.00000000E+00  0.00000000E+00
  0.00000000E+00  0.00000000E+00  0.00000000E+00
  0.00000000E+00  0.00000000E+00  0.00000000E+00
  0.00000000E+00  0.00000000E+00  0.00000000E+00
  0.00000000E+00  0.00000000E+00  0.00000000E+00
  0.00000000E+00  0.00000000E+00  0.00000000E+00
  0.00000000E+00  0.00000000E+00  0.00000000E+00
  0.00000000E+00  0.00000000E+00  0.00000000E+00
  0.00000000E+00  0.00000000E+00  0.00000000E+00
  0.00000000E+00  0.00000000E+00  0.00000000E+00
  0.00000000E+00  0.00000000E+00  0.00000000E+00
  0.00000000E+00  0.00000000E+00  0.00000000E+00
  0.00000000E+00  0.00000000E+00  0.00000000E+00
  0.00000000E+00  0.00000000E+00  0.00000000E+00
  0.00000000E+00  0.00000000E+00  0.00000000E+00
  0.00000000E+00  0.00000000E+00  0.00000000E+00
  0.00000000E+00  0.00000000E+00  0.00000000E+00
  0.00000000E+00  0.00000000E+00  0.00000000E+00
  0.00000000E+00  0.00000000E+00  0.00000000E+00
  0.00000000E+00  0.00000000E+00  0.00000000E+00
  0.00000000E+00  0.00000000E+00  0.00000000E+00
  0.00000000E+00  0.00000000E+00  0.00000000E+00
  0.00000000E+00  0.00000000E+00  0.00000000E+00
  0.00000000E+00  0.00000000E+00  0.00000000E+00
  0.00000000E+00  0.00000000E+00  0.00000000E+00
  0.00000000E+00  0.00000000E+00  0.00000000E+00
  0.00000000E+00  0.00000000E+00  0.00000000E+00
  0.00000000E+00  0.00000000E+00  0.00000000E+00
  0.00000000E+00  0.00000000E+00  0.00000000E+00
  0.00000000E+00  0.00000000E+00  0.00000000E+00
  0.00000000E+00  0.00000000E+00  0.00000000E+00
  0.00000000E+00  0.00000000E+00  0.00000000E+00
  0.00000000E+00  0.00000000E+00  0.00000000E+00
  0.00000000E+00  0.00000000E+00  0.00000000E+00
  0.00000000E+00  0.00000000E+00  0.00000000E+00
  0.00000000E+00  0.00000000E+00  0.00000000E+00
  0.00000000E+00  0.00000000E+00  0.00000000E+00
  0.00000000E+00  0.00000000E+00  0.00000000E+00
  0.00000000E+00  0.00000000E+00  0.00000000E+00
  0.00000000E+00  0.00000000E+00  0.00000000E+00
  0.00000000E+00  0.00000000E+00  0.00000000E+00
  0.00000000E+00  0.00000000E+00  0.00000000E+00
  0.00000000E+00  0.00000000E+00  0.00000000E+00
  0.00000000E+00  0.00000000E+00  0.00000000E+00
  0.00000000E+00  0.00000000E+00  0.00000000E+00
  0.00000000E+00  0.00000000E+00  0.00000000E+00
  0.00000000E+00  0.00000000E+00  0.00000000E+00
  0.00000000E+00  0.00000000E+00  0.00000000E+00
  0.00000000E+00  0.00000000E+00  0.00000000E+00
  0.00000000E+00  0.00000000E+00  0.00000000E+00
  0.00000000E+00  0.00000000E+00  0.00000000E+00
  0.00000000E+00  0.00000000E+00  0.00000000E+00
  0.00000000E+00  0.00000000E+00  0.00000000E+00
  0.00000000E+00  0.00000000E+00  0.00000000E+00
  0.00000000E+00  0.00000000E+00  0.00000000E+00
  0.00000000E+00  0.00000000E+00  0.00000000E+00
  0.00000000E+00  0.00000000E+00  0.00000000E+00
  0.00000000E+00  0.00000000E+00  0.00000000E+00
  0.00000000E+00  0.00000000E+00  0.00000000E+00
  0.00000000E+00  0.00000000E+00  0.00000000E+00
  0.00000000E+00  0.00000000E+00  0.00000000E+00
  0.00000000E+00  0.00000000E+00  0.00000000E+00
  0.00000000E+00  0.00000000E+00  0.00000000E+00
  0.00000000E+00  0.00000000E+00  0.00000000E+00
  0.00000000E+00  0.00000000E+00  0.00000000E+00
  0.00000000E+00  0.00000000E+00  0.00000000E+00
  0.00000000E+00  0.00000000E+00  0.00000000E+00
  0.00000000E+00  0.00000000E+00  0.00000000E+00
  0.00000000E+00  0.00000000E+00  0.00000000E+00
  0.00000000E+00  0.00000000E+00  0.00000000E+00
  0.00000000E+00  0.00000000E+00  0.00000000E+00
  0.00000000E+00  0.00000000E+00  0.00000000E+00
  0.00000000E+00  0.00000000E+00  0.00000000E+00
  0.00000000E+00  0.00000000E+00  0.00000000E+00
  0.00000000E+00  0.00000000E+00  0.00000000E+00
  0.00000000E+00  0.00000000E+00  0.00000000E+00
  0.00000000E+00  0.00000000E+00  0.00000000E+00
  0.00000000E+00  0.00000000E+00  0.00000000E+00
  0.00000000E+00  0.00000000E+00  0.00000000E+00
  0.00000000E+00  0.00000000E+00  0.00000000E+00
  0.00000000E+00  0.00000000E+00  0.00000000E+00
  0.00000000E+00  0.00000000E+00  0.00000000E+00
  0.00000000E+00  0.00000000E+00  0.00000000E+00
  0.00000000E+00  0.00000000E+00  0.00000000E+00
  0.00000000E+00  0.00000000E+00  0.00000000E+00
  0.00000000E+00  0.00000000E+00  0.00000000E+00
  0.00000000E+00  0.00000000E+00  0.00000000E+00
  0.00000000E+00  0.00000000E+00  0.00000000E+00
  0.00000000E+00  0.00000000E+00  0.00000000E+00
  0.00000000E+00  0.00000000E+00  0.00000000E+00
  0.00000000E+00  0.00000000E+00  0.00000000E+00
  0.00000000E+00  0.00000000E+00  0.00000000E+00
  0.00000000E+00  0.00000000E+00  0.00000000E+00
  0.00000000E+00  0.00000000E+00  0.00000000E+00
  0.00000000E+00  0.00000000E+00  0.00000000E+00
  0.00000000E+00  0.00000000E+00  0.00000000E+00
  0.00000000E+00  0.00000000E+00  0.00000000E+00
  0.00000000E+00  0.00000000E+00  0.00000000E+00
  0.00000000E+00  0.00000000E+00  0.00000000E+00
  0.00000000E+00  0.00000000E+00  0.00000000E+00
  0.00000000E+00  0.00000000E+00  0.00000000E+00
  0.00000000E+00  0.00000000E+00  0.00000000E+00
  0.00000000E+00  0.00000000E+00  0.00000000E+00
  0.00000000E+00  0.00000000E+00  0.00000000E+00
  0.00000000E+00  0.00000000E+00  0.00000000E+00
  0.00000000E+00  0.00000000E+00  0.00000000E+00
  0.00000000E+00  0.00000000E+00  0.00000000E+00
  0.00000000E+00  0.00000000E+00  0.00000000E+00
  0.00000000E+00  0.00000000E+00  0.00000000E+00
  0.00000000E+00  0.00000000E+00  0.00000000E+00
