Hf  O  F  H                             
   1.00000000000000     
    13.7225301000000002    0.0000000000000000    0.0000000000000000
     0.0000000000000000   13.7225301000000002    0.0000000000000000
     0.0000000000000000    0.0000000000000000   32.7225301000000002
   Hf   O    F    H 
    72   144     1     1
Direct
  0.1342788098260820  0.8682879399567829  0.4162869708583440
  0.8620040793221100  0.9479894950214227  0.5041412316284816
  0.0209645001421646  0.6270930235400024  0.3948003472088946
  0.8737223763616029  0.6428015444665458  0.3028002434040176
  0.0748093710443694  0.7877931904617365  0.3154455349877445
  0.4059263647562203  0.9456620967482343  0.5513196369983603
  0.6297414024980371  0.5165158620895399  0.2767290171145065
  0.6814524050914471  0.7518925729107253  0.2773147296519281
  0.0365008494889793  0.6489577425193361  0.6707194264900423
  0.2816723679412208  0.0591056028009288  0.4131824746827805
  0.9259442261919074  0.7416847053624815  0.4676545368204755
  0.2870975610590082  0.7628833893610515  0.2960839701621055
  0.1010419458030967  0.5287734574139107  0.3103487850452362
  0.3417589991539356  0.1692687662895969  0.5242489797257234
  0.5231002613944425  0.9786581329053051  0.6687361920689611
  0.2690432416586153  0.6392276747403147  0.6542371994314052
  0.5489185926547091  0.3688662250907360  0.5423610399753086
  0.4661088728642690  0.9917084790376839  0.3235553850396084
  0.2839380487079777  0.6593889374962891  0.3879269691662592
  0.8945926558667751  0.7215155503816150  0.5666361465851828
  0.8360912656946280  0.4313941262252481  0.3144745675319782
  0.9156277649662237  0.0968691840809453  0.5746141601798614
  0.0105861928827552  0.3557749596998044  0.3900927942185246
  0.9148341414754123  0.4976966468478126  0.5941517473689869
  0.1381155510337670  0.5382513192116198  0.5850107545140346
  0.1782262015701767  0.2510145253148824  0.4460349842361812
  0.1112647883257864  0.2897406564319996  0.5448733740583195
  0.7456604331194742  0.5582952864689366  0.5140779376673393
  0.3414963967111518  0.1416786261811307  0.6375456252924564
  0.6586146534596378  0.1522556064718853  0.6134124658921842
  0.5194924263599900  0.2965100626369954  0.6796769688887216
  0.2640311054858323  0.4520090410258525  0.4958494584790442
  0.3042216589613246  0.3580608013876194  0.6083930280188965
  0.8560451298567502  0.9807943645172147  0.4077555902931652
  0.1577609954968179  0.0454699200482458  0.5080156307947291
  0.8102488378815339  0.7008439406560805  0.6697375236889525
  0.4915593354872608  0.6464264155294519  0.3465398086507088
  0.0100588939876133  0.4719759311469690  0.4998990615657333
  0.8805813960336274  0.9229728791208636  0.3018256074128153
  0.4160496386531032  0.8189863504115337  0.4418062153678476
  0.4255210075150030  0.3360894315115434  0.4479441247190530
  0.5983264781184985  0.8059871614768483  0.5030116628216011
  0.3400980959958488  0.7091345824617761  0.5375529254430860
  0.1433719410586518  0.8239586902581597  0.5780424177371959
  0.6797279274230756  0.2319666211656441  0.4318072458418615
  0.5595480007722560  0.0042835387414919  0.4160571313285383
  0.3073987792213967  0.9102302851849390  0.6386685563377691
  0.4944971410013147  0.5598057937114844  0.4812079064113813
  0.5904632445924827  0.1500258799267747  0.5176695349362938
  0.0633168462131328  0.0560050120617738  0.3621050832329765
  0.8075671995114508  0.4202152581351669  0.4314257592679462
  0.6953030590020114  0.9281663755546996  0.5765636877443262
  0.4921592743757055  0.7578075189330438  0.6578371989196816
  0.6786246695623435  0.8475360646350766  0.3649268456732756
  0.2559652967751916  0.9988022755530767  0.3083888657193151
  0.4499336562254829  0.5659936471942200  0.5990106035155287
  0.6516349297920085  0.2868904214367003  0.2894291665008183
  0.6592819813412006  0.6754746038174566  0.5979939375693513
  0.9977755801464051  0.8981304967684203  0.6475771034601292
  0.7461740879652596  0.6362888918102058  0.3922076581549177
  0.2936386074985953  0.4253501105346785  0.3708796953133270
  0.6942387423309097  0.0453718089538060  0.2671500439628946
  0.5675661678077696  0.4278623324532589  0.3734001904722271
  0.4327416818020020  0.2190272365815087  0.3639452852233146
  0.6809828600963649  0.4531009141405252  0.6300405057103694
  0.1596159814783557  0.6693861694356156  0.4769715724940226
  0.8481578618937177  0.2905291357625518  0.6404174268627374
  0.8531801862692500  0.1975436837519774  0.3415595286238592
  0.0814391760210593  0.1818623658768698  0.6339011387062971
  0.8068760866864327  0.3284814691213533  0.5308920559971779
  0.9384760893774988  0.1872124442581380  0.4788407073766183
  0.1633202374794318  0.2556216780324839  0.3310363854711174
  0.3057244802725225  0.2888750001706524  0.3355673946419351
  0.9315474867904633  0.8260160217445257  0.5208384605299758
  0.3608076247324735  0.8838469583525589  0.3186919067218184
  0.5496552892325050  0.8888669798486196  0.4554645326460894
  0.0472830855645481  0.4285877808627697  0.5614408458085096
  0.0416033583339858  0.4943017346077012  0.3673377396766712
  0.0035181307244409  0.0496332413382897  0.6240124995826916
  0.3058677836701775  0.6105207135241396  0.4849766361990152
  0.1847692567889211  0.9740420227963816  0.4524502785369777
  0.0119584946831340  0.2357849512916202  0.3448759322087466
  0.3706093372875534  0.0463262451527156  0.2801152755658128
  0.1256081879161458  0.9338583651086106  0.5431753033802098
  0.4652285799117167  0.8892828154716246  0.6261933437209363
  0.7022876580700107  0.9695771270344944  0.4030542919073355
  0.3012224683345327  0.0148439005426707  0.5209360904897137
  0.5028362386393851  0.3047236429671971  0.7339385404015232
  0.0486452259902826  0.7894696388123537  0.6787752519375145
  0.7561872036389519  0.5621113458259017  0.4442059033499761
  0.8821395116972024  0.3430708450324373  0.5860005856933261
  0.3556251657639356  0.2243705282805782  0.5825345142214118
  0.8360134503602923  0.9735146644161443  0.5665373933391745
  0.2622008988942041  0.7745109867657175  0.4360752380943013
  0.0212809636377367  0.9401254966733178  0.3207944983352997
  0.7207365552255606  0.8927446053206241  0.5116230114796612
  0.3873088551617248  0.5554982156627714  0.3771077631810559
  0.9390019978309034  0.7837409162217562  0.2870848575792400
  0.8233943397228067  0.2719615858774077  0.4494302094215745
  0.0704180965918708  0.7867354151895987  0.4611608044851945
  0.1458982128699947  0.6743455424913208  0.6167411181029290
  0.8704012915500953  0.3501182559167586  0.3676668777332051
  0.5075574325993227  0.7053084571277501  0.4654382693321308
  0.7878159069112396  0.5905269299462583  0.5747453801243113
  0.2025083505641066  0.1638821091432490  0.5459004668456133
  0.5460096203662216  0.2884182482422605  0.3306653836251279
  0.9549524903354558  0.5035435578922126  0.2896946138551634
  0.6501054149286404  0.6810745119884335  0.5278405474745232
  0.5357530676083108  0.2608043228589748  0.4162442490758962
  0.9971327997225125  0.6118295776354069  0.5599096443994385
  0.9606046834142173  0.3200821870043054  0.5087068237377694
  0.4772966258588348  0.2597732302334729  0.5041956097083312
  0.4155223423633435  0.4377911544559607  0.4993633668130932
  0.8907400237645460  0.6852929231043601  0.4106781132680752
  0.4194318164585604  0.7353633440509135  0.3904086347022545
  0.5689737438098844  0.1362118282225791  0.6790608667803260
  0.7772174495207705  0.5427708713143318  0.2770381830320203
  0.8661797792336743  0.8708788213780537  0.4486013924880661
  0.5827546763793313  0.2355840224084726  0.5721639496737094
  0.6672953168629682  0.2689074609168668  0.4981112978070496
  0.8098586272818992  0.1575660220164507  0.6127923761418310
  0.1853239544613681  0.8741499410665455  0.2842520533076086
  0.3417628509163861  0.0808997775058127  0.3546581226195181
  0.7204628844523183  0.5936243086080588  0.6486692146701891
  0.3132542062698372  0.6356131823716100  0.5889973093826927
  0.5213595408545247  0.5133583365582355  0.3172633864521001
  0.8852478475157912  0.9179795402654488  0.6876541370571712
  0.1934520002937781  0.7354992331001062  0.5305131210592791
  0.4669008608819985  0.0756661888025636  0.5302389099954384
  0.1299907803728604  0.3762150404487922  0.4834215913436441
  0.1935454945045470  0.9636121477177771  0.3705134155294524
  0.6414365001982063  0.7528299405508694  0.6522803744387803
  0.6700677267353080  0.0729943585435556  0.5580387507102190
  0.2226448455946976  0.5448561980036596  0.3467044420762961
  0.3983635628191493  0.6756580492371904  0.3017842640578864
  0.4407076839696680  0.4156920266457050  0.5838348159403310
  0.0168200335877619  0.9626433390879965  0.4078093684670964
  0.9752043940444549  0.0507144888866723  0.5174623952583275
  0.2526765241519285  0.4923752267021658  0.6280064036375105
  0.5776139266550513  0.9783122572510443  0.2864878680688949
  0.8043635469970020  0.2886062321806954  0.2948201238755647
  0.0155097979126947  0.6115958564890230  0.4662039275776760
  0.0199961130932440  0.2499746906965152  0.4303645842372528
  0.5112854530274864  0.7081761107397676  0.5986231517656031
  0.4280756834458657  0.3712346867997802  0.3789656450360250
  0.2573086896685093  0.1316518727541456  0.4677167023009720
  0.8439141707354875  0.1836806508246135  0.5302320698604674
  0.1668492546873877  0.2928021811359976  0.6082208697067649
  0.0221994587900447  0.2013237210497474  0.5766142996045444
  0.9058620939832818  0.6634945692734013  0.6268956577057148
  0.7516521638853255  0.8867021742522753  0.2704797720361997
  0.7593958697350890  0.7885096131780269  0.5857664277539486
  0.5119791244301956  0.1483777451582899  0.6395462489003158
  0.8416329157165335  0.6715238116159623  0.5069893556561019
  0.3075119074928302  0.8403331299534834  0.5793950430407376
  0.3791168183721672  0.0200003008134151  0.6751913104763435
  0.3484595861063022  0.2167989530307063  0.4154771544331973
  0.6148553917455766  0.1059636052518817  0.4571635476665114
  0.1466152184034625  0.5460067743429557  0.5149465931828823
  0.5145239069768148  0.4596654322762646  0.4341223230717725
  0.1368559821979946  0.3848837807850825  0.3039720875664698
  0.5429905142966153  0.9072319720735234  0.3683160397185029
  0.8356006996538676  0.5485825355048843  0.3552619421775474
  0.5950242441103000  0.5387395128278137  0.5934683548498073
  0.0111417603624462  0.6490541004602369  0.3311482129848191
  0.6932479007550185  0.3888325085880542  0.5685213388221547
  0.2272230602268509  0.7556408563838620  0.3502627879531320
  0.8783130476371540  0.4786864917140666  0.5307809993577539
  0.8525674003498550  0.0639938787100770  0.4578383353045921
  0.3479587035508555  0.0253725787453115  0.5985920153142992
  0.6853591015755155  0.4225126560593366  0.3225820525536404
  0.7460755175744406  0.1817353271515026  0.3796036096791250
  0.5208811966902551  0.0945520371615195  0.3672532516670762
  0.9980566496338352  0.8183138177135992  0.5944940003605605
  0.3730457235495849  0.2863571917641820  0.6572004699745623
  0.3986774507078744  0.9667091012486990  0.4247136488293209
  0.6136387981581922  0.5760667407406802  0.3782857205793439
  0.6485543122543749  0.1747765225244345  0.2520838794578130
  0.6878057250315225  0.7614987012356501  0.4105579432024035
  0.8245740873082237  0.8958262058289940  0.3548207301769324
  0.9548922180325858  0.4428190183442234  0.4378474707461741
  0.8504569299203090  0.8509122292622923  0.6545285644382621
  0.6002711310753727  0.4926365381783116  0.5112678804731737
  0.0365726061018193  0.5182243950688356  0.6302451895459469
  0.4236046157559416  0.6145913052930146  0.6577478560346123
  0.6200256340105659  0.6460425611293983  0.2470025248456900
  0.5659538804310715  0.4273754211936893  0.6627721771480600
  0.5885354200642631  0.7558509179156701  0.3249535303181641
  0.7639670240216555  0.7203873597745352  0.3319763562773564
  0.6854611358497238  0.3718969171352361  0.4040289921527615
  0.7595078305760230  0.4215219039370227  0.4870519913221414
  0.2944838254069295  0.4224525326331666  0.4327822442528634
  0.9082899344211970  0.6481173198743312  0.7049148051090109
  0.5241723634709975  0.8637457786882811  0.7010614152516172
  0.8289543198754150  0.0662321612999908  0.2945154620041329
  0.1612316535621294  0.1468268746844697  0.3944330989611942
  0.2067911745067486  0.1270806190236219  0.6548986184349509
  0.5591064434851957  0.8865888931829944  0.5520151791884633
  0.1629331272724732  0.3375690076900416  0.3867768787352143
  0.0894153737687370  0.1831025897480432  0.4908494296710299
  0.2368674658892446  0.4078569216019134  0.5542469997356579
  0.9748095895986552  0.2476684760180425  0.6637451056603292
  0.0573568584959869  0.7742502800606389  0.3780545864578303
  0.9170243377972759  0.0795394785491382  0.3674848280024590
  0.6450877107746299  0.9992435933024695  0.6289579531852383
  0.4478830899095981  0.6078317851761867  0.5375626759098808
  0.8296267927372413  0.4381560067936698  0.6449572015737696
  0.1614420970367627  0.6144582163076793  0.4179305643773464
  0.4029198490318203  0.8279432918214918  0.5075280393546459
  0.1663732679149489  0.6163082928311165  0.6942546287841933
  0.3295734670844144  0.7783871519530211  0.6642072166264887
  0.1578601347336153  0.6744612392819209  0.2843384936571720
  0.1523280338913260  0.1106923513969729  0.3118210190923618
  0.6931467702333790  0.2827314488675814  0.6470511790355286
  0.1619794306339079  0.9034033278826142  0.6308570728998617
  0.2944390765344781  0.2961609461990126  0.4888979025362931
  0.3915307176515794  0.4424912440606891  0.7537391841729943
  0.4366789181726817  0.3872651776504930  0.7489319427937324
 
  0.00000000E+00  0.00000000E+00  0.00000000E+00
  0.00000000E+00  0.00000000E+00  0.00000000E+00
  0.00000000E+00  0.00000000E+00  0.00000000E+00
  0.00000000E+00  0.00000000E+00  0.00000000E+00
  0.00000000E+00  0.00000000E+00  0.00000000E+00
  0.00000000E+00  0.00000000E+00  0.00000000E+00
  0.00000000E+00  0.00000000E+00  0.00000000E+00
  0.00000000E+00  0.00000000E+00  0.00000000E+00
  0.00000000E+00  0.00000000E+00  0.00000000E+00
  0.00000000E+00  0.00000000E+00  0.00000000E+00
  0.00000000E+00  0.00000000E+00  0.00000000E+00
  0.00000000E+00  0.00000000E+00  0.00000000E+00
  0.00000000E+00  0.00000000E+00  0.00000000E+00
  0.00000000E+00  0.00000000E+00  0.00000000E+00
  0.00000000E+00  0.00000000E+00  0.00000000E+00
  0.00000000E+00  0.00000000E+00  0.00000000E+00
  0.00000000E+00  0.00000000E+00  0.00000000E+00
  0.00000000E+00  0.00000000E+00  0.00000000E+00
  0.00000000E+00  0.00000000E+00  0.00000000E+00
  0.00000000E+00  0.00000000E+00  0.00000000E+00
  0.00000000E+00  0.00000000E+00  0.00000000E+00
  0.00000000E+00  0.00000000E+00  0.00000000E+00
  0.00000000E+00  0.00000000E+00  0.00000000E+00
  0.00000000E+00  0.00000000E+00  0.00000000E+00
  0.00000000E+00  0.00000000E+00  0.00000000E+00
  0.00000000E+00  0.00000000E+00  0.00000000E+00
  0.00000000E+00  0.00000000E+00  0.00000000E+00
  0.00000000E+00  0.00000000E+00  0.00000000E+00
  0.00000000E+00  0.00000000E+00  0.00000000E+00
  0.00000000E+00  0.00000000E+00  0.00000000E+00
  0.00000000E+00  0.00000000E+00  0.00000000E+00
  0.00000000E+00  0.00000000E+00  0.00000000E+00
  0.00000000E+00  0.00000000E+00  0.00000000E+00
  0.00000000E+00  0.00000000E+00  0.00000000E+00
  0.00000000E+00  0.00000000E+00  0.00000000E+00
  0.00000000E+00  0.00000000E+00  0.00000000E+00
  0.00000000E+00  0.00000000E+00  0.00000000E+00
  0.00000000E+00  0.00000000E+00  0.00000000E+00
  0.00000000E+00  0.00000000E+00  0.00000000E+00
  0.00000000E+00  0.00000000E+00  0.00000000E+00
  0.00000000E+00  0.00000000E+00  0.00000000E+00
  0.00000000E+00  0.00000000E+00  0.00000000E+00
  0.00000000E+00  0.00000000E+00  0.00000000E+00
  0.00000000E+00  0.00000000E+00  0.00000000E+00
  0.00000000E+00  0.00000000E+00  0.00000000E+00
  0.00000000E+00  0.00000000E+00  0.00000000E+00
  0.00000000E+00  0.00000000E+00  0.00000000E+00
  0.00000000E+00  0.00000000E+00  0.00000000E+00
  0.00000000E+00  0.00000000E+00  0.00000000E+00
  0.00000000E+00  0.00000000E+00  0.00000000E+00
  0.00000000E+00  0.00000000E+00  0.00000000E+00
  0.00000000E+00  0.00000000E+00  0.00000000E+00
  0.00000000E+00  0.00000000E+00  0.00000000E+00
  0.00000000E+00  0.00000000E+00  0.00000000E+00
  0.00000000E+00  0.00000000E+00  0.00000000E+00
  0.00000000E+00  0.00000000E+00  0.00000000E+00
  0.00000000E+00  0.00000000E+00  0.00000000E+00
  0.00000000E+00  0.00000000E+00  0.00000000E+00
  0.00000000E+00  0.00000000E+00  0.00000000E+00
  0.00000000E+00  0.00000000E+00  0.00000000E+00
  0.00000000E+00  0.00000000E+00  0.00000000E+00
  0.00000000E+00  0.00000000E+00  0.00000000E+00
  0.00000000E+00  0.00000000E+00  0.00000000E+00
  0.00000000E+00  0.00000000E+00  0.00000000E+00
  0.00000000E+00  0.00000000E+00  0.00000000E+00
  0.00000000E+00  0.00000000E+00  0.00000000E+00
  0.00000000E+00  0.00000000E+00  0.00000000E+00
  0.00000000E+00  0.00000000E+00  0.00000000E+00
  0.00000000E+00  0.00000000E+00  0.00000000E+00
  0.00000000E+00  0.00000000E+00  0.00000000E+00
  0.00000000E+00  0.00000000E+00  0.00000000E+00
  0.00000000E+00  0.00000000E+00  0.00000000E+00
  0.00000000E+00  0.00000000E+00  0.00000000E+00
  0.00000000E+00  0.00000000E+00  0.00000000E+00
  0.00000000E+00  0.00000000E+00  0.00000000E+00
  0.00000000E+00  0.00000000E+00  0.00000000E+00
  0.00000000E+00  0.00000000E+00  0.00000000E+00
  0.00000000E+00  0.00000000E+00  0.00000000E+00
  0.00000000E+00  0.00000000E+00  0.00000000E+00
  0.00000000E+00  0.00000000E+00  0.00000000E+00
  0.00000000E+00  0.00000000E+00  0.00000000E+00
  0.00000000E+00  0.00000000E+00  0.00000000E+00
  0.00000000E+00  0.00000000E+00  0.00000000E+00
  0.00000000E+00  0.00000000E+00  0.00000000E+00
  0.00000000E+00  0.00000000E+00  0.00000000E+00
  0.00000000E+00  0.00000000E+00  0.00000000E+00
  0.00000000E+00  0.00000000E+00  0.00000000E+00
  0.00000000E+00  0.00000000E+00  0.00000000E+00
  0.00000000E+00  0.00000000E+00  0.00000000E+00
  0.00000000E+00  0.00000000E+00  0.00000000E+00
  0.00000000E+00  0.00000000E+00  0.00000000E+00
  0.00000000E+00  0.00000000E+00  0.00000000E+00
  0.00000000E+00  0.00000000E+00  0.00000000E+00
  0.00000000E+00  0.00000000E+00  0.00000000E+00
  0.00000000E+00  0.00000000E+00  0.00000000E+00
  0.00000000E+00  0.00000000E+00  0.00000000E+00
  0.00000000E+00  0.00000000E+00  0.00000000E+00
  0.00000000E+00  0.00000000E+00  0.00000000E+00
  0.00000000E+00  0.00000000E+00  0.00000000E+00
  0.00000000E+00  0.00000000E+00  0.00000000E+00
  0.00000000E+00  0.00000000E+00  0.00000000E+00
  0.00000000E+00  0.00000000E+00  0.00000000E+00
  0.00000000E+00  0.00000000E+00  0.00000000E+00
  0.00000000E+00  0.00000000E+00  0.00000000E+00
  0.00000000E+00  0.00000000E+00  0.00000000E+00
  0.00000000E+00  0.00000000E+00  0.00000000E+00
  0.00000000E+00  0.00000000E+00  0.00000000E+00
  0.00000000E+00  0.00000000E+00  0.00000000E+00
  0.00000000E+00  0.00000000E+00  0.00000000E+00
  0.00000000E+00  0.00000000E+00  0.00000000E+00
  0.00000000E+00  0.00000000E+00  0.00000000E+00
  0.00000000E+00  0.00000000E+00  0.00000000E+00
  0.00000000E+00  0.00000000E+00  0.00000000E+00
  0.00000000E+00  0.00000000E+00  0.00000000E+00
  0.00000000E+00  0.00000000E+00  0.00000000E+00
  0.00000000E+00  0.00000000E+00  0.00000000E+00
  0.00000000E+00  0.00000000E+00  0.00000000E+00
  0.00000000E+00  0.00000000E+00  0.00000000E+00
  0.00000000E+00  0.00000000E+00  0.00000000E+00
  0.00000000E+00  0.00000000E+00  0.00000000E+00
  0.00000000E+00  0.00000000E+00  0.00000000E+00
  0.00000000E+00  0.00000000E+00  0.00000000E+00
  0.00000000E+00  0.00000000E+00  0.00000000E+00
  0.00000000E+00  0.00000000E+00  0.00000000E+00
  0.00000000E+00  0.00000000E+00  0.00000000E+00
  0.00000000E+00  0.00000000E+00  0.00000000E+00
  0.00000000E+00  0.00000000E+00  0.00000000E+00
  0.00000000E+00  0.00000000E+00  0.00000000E+00
  0.00000000E+00  0.00000000E+00  0.00000000E+00
  0.00000000E+00  0.00000000E+00  0.00000000E+00
  0.00000000E+00  0.00000000E+00  0.00000000E+00
  0.00000000E+00  0.00000000E+00  0.00000000E+00
  0.00000000E+00  0.00000000E+00  0.00000000E+00
  0.00000000E+00  0.00000000E+00  0.00000000E+00
  0.00000000E+00  0.00000000E+00  0.00000000E+00
  0.00000000E+00  0.00000000E+00  0.00000000E+00
  0.00000000E+00  0.00000000E+00  0.00000000E+00
  0.00000000E+00  0.00000000E+00  0.00000000E+00
  0.00000000E+00  0.00000000E+00  0.00000000E+00
  0.00000000E+00  0.00000000E+00  0.00000000E+00
  0.00000000E+00  0.00000000E+00  0.00000000E+00
  0.00000000E+00  0.00000000E+00  0.00000000E+00
  0.00000000E+00  0.00000000E+00  0.00000000E+00
  0.00000000E+00  0.00000000E+00  0.00000000E+00
  0.00000000E+00  0.00000000E+00  0.00000000E+00
  0.00000000E+00  0.00000000E+00  0.00000000E+00
  0.00000000E+00  0.00000000E+00  0.00000000E+00
  0.00000000E+00  0.00000000E+00  0.00000000E+00
  0.00000000E+00  0.00000000E+00  0.00000000E+00
  0.00000000E+00  0.00000000E+00  0.00000000E+00
  0.00000000E+00  0.00000000E+00  0.00000000E+00
  0.00000000E+00  0.00000000E+00  0.00000000E+00
  0.00000000E+00  0.00000000E+00  0.00000000E+00
  0.00000000E+00  0.00000000E+00  0.00000000E+00
  0.00000000E+00  0.00000000E+00  0.00000000E+00
  0.00000000E+00  0.00000000E+00  0.00000000E+00
  0.00000000E+00  0.00000000E+00  0.00000000E+00
  0.00000000E+00  0.00000000E+00  0.00000000E+00
  0.00000000E+00  0.00000000E+00  0.00000000E+00
  0.00000000E+00  0.00000000E+00  0.00000000E+00
  0.00000000E+00  0.00000000E+00  0.00000000E+00
  0.00000000E+00  0.00000000E+00  0.00000000E+00
  0.00000000E+00  0.00000000E+00  0.00000000E+00
  0.00000000E+00  0.00000000E+00  0.00000000E+00
  0.00000000E+00  0.00000000E+00  0.00000000E+00
  0.00000000E+00  0.00000000E+00  0.00000000E+00
  0.00000000E+00  0.00000000E+00  0.00000000E+00
  0.00000000E+00  0.00000000E+00  0.00000000E+00
  0.00000000E+00  0.00000000E+00  0.00000000E+00
  0.00000000E+00  0.00000000E+00  0.00000000E+00
  0.00000000E+00  0.00000000E+00  0.00000000E+00
  0.00000000E+00  0.00000000E+00  0.00000000E+00
  0.00000000E+00  0.00000000E+00  0.00000000E+00
  0.00000000E+00  0.00000000E+00  0.00000000E+00
  0.00000000E+00  0.00000000E+00  0.00000000E+00
  0.00000000E+00  0.00000000E+00  0.00000000E+00
  0.00000000E+00  0.00000000E+00  0.00000000E+00
  0.00000000E+00  0.00000000E+00  0.00000000E+00
  0.00000000E+00  0.00000000E+00  0.00000000E+00
  0.00000000E+00  0.00000000E+00  0.00000000E+00
  0.00000000E+00  0.00000000E+00  0.00000000E+00
  0.00000000E+00  0.00000000E+00  0.00000000E+00
  0.00000000E+00  0.00000000E+00  0.00000000E+00
  0.00000000E+00  0.00000000E+00  0.00000000E+00
  0.00000000E+00  0.00000000E+00  0.00000000E+00
  0.00000000E+00  0.00000000E+00  0.00000000E+00
  0.00000000E+00  0.00000000E+00  0.00000000E+00
  0.00000000E+00  0.00000000E+00  0.00000000E+00
  0.00000000E+00  0.00000000E+00  0.00000000E+00
  0.00000000E+00  0.00000000E+00  0.00000000E+00
  0.00000000E+00  0.00000000E+00  0.00000000E+00
  0.00000000E+00  0.00000000E+00  0.00000000E+00
  0.00000000E+00  0.00000000E+00  0.00000000E+00
  0.00000000E+00  0.00000000E+00  0.00000000E+00
  0.00000000E+00  0.00000000E+00  0.00000000E+00
  0.00000000E+00  0.00000000E+00  0.00000000E+00
  0.00000000E+00  0.00000000E+00  0.00000000E+00
  0.00000000E+00  0.00000000E+00  0.00000000E+00
  0.00000000E+00  0.00000000E+00  0.00000000E+00
  0.00000000E+00  0.00000000E+00  0.00000000E+00
  0.00000000E+00  0.00000000E+00  0.00000000E+00
  0.00000000E+00  0.00000000E+00  0.00000000E+00
  0.00000000E+00  0.00000000E+00  0.00000000E+00
  0.00000000E+00  0.00000000E+00  0.00000000E+00
  0.00000000E+00  0.00000000E+00  0.00000000E+00
  0.00000000E+00  0.00000000E+00  0.00000000E+00
  0.00000000E+00  0.00000000E+00  0.00000000E+00
  0.00000000E+00  0.00000000E+00  0.00000000E+00
  0.00000000E+00  0.00000000E+00  0.00000000E+00
  0.00000000E+00  0.00000000E+00  0.00000000E+00
  0.00000000E+00  0.00000000E+00  0.00000000E+00
  0.00000000E+00  0.00000000E+00  0.00000000E+00
  0.00000000E+00  0.00000000E+00  0.00000000E+00
  0.00000000E+00  0.00000000E+00  0.00000000E+00
  0.00000000E+00  0.00000000E+00  0.00000000E+00
  0.00000000E+00  0.00000000E+00  0.00000000E+00
  0.00000000E+00  0.00000000E+00  0.00000000E+00
  0.00000000E+00  0.00000000E+00  0.00000000E+00
