Hf  O  F  H                             
   1.00000000000000     
    13.7225301000000002    0.0000000000000000    0.0000000000000000
     0.0000000000000000   13.7225301000000002    0.0000000000000000
     0.0000000000000000    0.0000000000000000   32.7225301000000002
   Hf   O    F    H 
    72   144     4     4
Direct
  0.1459812481096281  0.8498583589377766  0.4130698606977519
  0.8610003156883060  0.9440742411087257  0.5045201971153477
  0.0178572043568761  0.6410671058980034  0.3867623815827039
  0.8877780611792315  0.6268716932393092  0.2855070207104667
  0.0824427142942924  0.7792010411010978  0.3061824066917216
  0.3991746309929780  0.9588762818109540  0.5512956560127051
  0.6373570262524760  0.4950050948282157  0.2736431006816449
  0.6396135734246027  0.7469875594239467  0.2651883498958367
  0.0452190685000214  0.6582655585285950  0.6710958472769308
  0.2785295110994576  0.0505114347960686  0.4111433328510857
  0.9124382223947053  0.7303881638678265  0.4695998606260871
  0.3008487452599674  0.7554624093472567  0.3067316450106687
  0.1138996405148576  0.5249711910619561  0.3118161827473802
  0.3342205103832659  0.1790456186996789  0.5234579152353382
  0.5281490127973374  0.0119890971258555  0.6729788711718200
  0.2833657495965404  0.6386179667659865  0.6546439864547274
  0.5510127902257296  0.3726193169765117  0.5423849395404279
  0.4700560801819897  0.9837594133751644  0.3333579137414435
  0.2913521428348598  0.6356674411181596  0.3998173594123615
  0.8955244702336335  0.7365963985980093  0.5792461336276511
  0.8441039232125086  0.4237614898907050  0.3121926157482404
  0.9119856530440578  0.0989803829615304  0.5768983320402578
  0.0177228360804506  0.3676509513980587  0.3934006362666551
  0.9147938111879597  0.4988711859310380  0.5945559887077981
  0.1280667324147034  0.5630755799178888  0.5841324340238236
  0.1887824978867668  0.2446751532820531  0.4439962749041867
  0.1066183660275484  0.2999781686272841  0.5532258238284152
  0.7337009445223909  0.5581238186025518  0.5258978233447189
  0.3474393226976671  0.1469656683394217  0.6412047538937404
  0.6506883663388491  0.1571294038724515  0.6206886922724001
  0.5195605460453653  0.2690823411178542  0.6829230194957704
  0.2577167933022824  0.4477365474093219  0.4901269514385237
  0.3042589667648554  0.3648412730058750  0.6047689586784211
  0.8600282155746382  0.9700638991048782  0.4050725160980257
  0.1481312587956689  0.0454076865027124  0.5020879810607463
  0.7985738140882738  0.7115618476556171  0.6836399633474266
  0.4942645881993344  0.6351681437264789  0.3463514859224860
  0.0103352820753190  0.4689671887173966  0.4994560671793340
  0.8755393899166604  0.8756759073589578  0.2928475643237343
  0.4243663916744435  0.8194648340266276  0.4414600869154215
  0.4234698198403973  0.3418335091011498  0.4451556048101628
  0.6002304294605962  0.8063941615246687  0.5088406799873105
  0.3359397908098065  0.7289186987080223  0.5413135700908660
  0.1439675843880517  0.8356748556180876  0.5811675058575482
  0.6731764783892832  0.2349933973377457  0.4373632955107341
  0.5649190864161331  0.0062515947883257  0.4236979491273579
  0.3235306191226422  0.9088797915356126  0.6426577995097692
  0.4879341320698562  0.5640407893762853  0.4794678849257672
  0.5841111277636318  0.1587875063523521  0.5234597068440433
  0.0604106037615144  0.0291110232214805  0.3548128820378230
  0.8064365837343231  0.4175900599703216  0.4330338591962364
  0.6906910172208173  0.9367232376179869  0.5797510096325286
  0.5189409075209923  0.7839361161930395  0.6741038326389145
  0.6664120017273084  0.8591876224151084  0.3628552046254191
  0.2683455467923019  0.9924388382630318  0.3069353936831458
  0.4534438431547568  0.5732825314011691  0.5973424762014132
  0.6646261640721256  0.2647345415590221  0.2938371734391491
  0.6633115684502334  0.6816378409435470  0.6073245538623687
  0.0047661413610608  0.9067387238788942  0.6552776008974274
  0.7475123172067978  0.6366523576964033  0.3851662822021146
  0.2907198579959579  0.4150134111557148  0.3635199998261486
  0.6641651351880448 -0.0005968237151601  0.2590976193919656
  0.5708957100346943  0.4236194429869369  0.3721252956164173
  0.4345860685337078  0.2146495275954765  0.3646977938541574
  0.6840491047584677  0.4554239082059574  0.6327104720998836
  0.1510496615420993  0.6688613095411043  0.4775220028202369
  0.8497476354266859  0.2926091866411701  0.6397727939936945
  0.8727412129042390  0.2154595095391257  0.3621306887626909
  0.0801215673456246  0.1827031453947672  0.6381243520053353
  0.8085464700448725  0.3328326195935387  0.5287661754763820
  0.9319005783544207  0.1811625826593065  0.4774874498191687
  0.1629466756762650  0.2387938473179661  0.3344674802623124
  0.3083603792456727  0.2715028547601664  0.3341153559142084
  0.9198858181587001  0.8153523040194537  0.5222120408520271
  0.3631595128127926  0.8813155812641792  0.3287861280331330
  0.5516630903253211  0.8930192806616739  0.4610059597245048
  0.0474315418045914  0.4405522226100984  0.5620717239786545
  0.0339209040315633  0.4989833518903972  0.3654291702183118
  0.0012146985558004  0.0515066595388870  0.6280140246621252
  0.2948911753602580  0.6002543715638115  0.4666284345258778
  0.1786345507350917  0.9678559464009451  0.4471987083764728
  0.0163085711997491  0.2716856251634452  0.3397423043066186
  0.3959412729543053  0.0244779197307396  0.2814661080037673
  0.1238669773000902  0.9316296246694870  0.5389751479562652
  0.4758850489889801  0.8990531046520097  0.6345357518673402
  0.7014946931120990  0.9719485930079422  0.4024180797429829
  0.2877863666021821  0.0277915959245298  0.5250993798635871
  0.5337023424157417  0.3120660935660439  0.7384501451719605
  0.0601512916536725  0.7956284106402054  0.6847463561375340
  0.7599874341061247  0.5500052228655135  0.4286434666055400
  0.8861528286906706  0.3430248386883682  0.5850735801225987
  0.3345389020418672  0.2215624211653872  0.5813693947370797
  0.8336674543636652  0.9761296177059150  0.5661796627288995
  0.2681888620457673  0.7784432398352858  0.4392785530935887
  0.0114031956864277  0.9222982570294352  0.3114213433513555
  0.7198137591124695  0.8945484931343169  0.5125937901563178
  0.3862795103817808  0.5460345560330673  0.3666363772304339
  0.9636912481463438  0.7634918498091861  0.2691812464018727
  0.8110648999446340  0.2755735120278880  0.4615604091621430
  0.0633412955375640  0.7823571420873364  0.4555686777974629
  0.1474169824401583  0.6889829946024473  0.6183600297001255
  0.8705358622465198  0.3800837804290447  0.3709401314552395
  0.5157018153081624  0.7099204691001826  0.4682889132512121
  0.7953157309925825  0.5999273226736018  0.5809021098823702
  0.1804923393040314  0.1837332035491175  0.5298119302646148
  0.5583036142915441  0.2790941312703268  0.3334002575548657
  0.9672317347547329  0.4931480549979118  0.2849735629184174
  0.6429464191877541  0.6856438987040772  0.5397204113222172
  0.5300879023374387  0.2559584370554756  0.4187249825201060
  0.9894633039431242  0.6284194674602480  0.5638716956854779
  0.9708122143421730  0.3146020038505991  0.5087906548698409
  0.4703093971700503  0.2674123270456030  0.5071221367625391
  0.4072216574129906  0.4443053671305883  0.4949963423846606
  0.8915431102666401  0.6857002748175979  0.4080414267211722
  0.4272230247818675  0.7124100444099752  0.3956702499888151
  0.6131650090398003  0.1479012415824221  0.6841237231171765
  0.7863492371950082  0.5219249106787907  0.2663539577786469
  0.8642303776601348  0.8663802941355561  0.4482224572553308
  0.5864945522807538  0.2500078744833011  0.5748863117042226
  0.6549501443351945  0.2817213678243350  0.5011584213494236
  0.8081476916110829  0.1604265212911485  0.6149238801995084
  0.2031415383459937  0.8627977266052081  0.2851373259917460
  0.3464741118219320  0.0729807800208923  0.3531702348215393
  0.7178514772874192  0.5941387857194987  0.6559477096271181
  0.3259788837185890  0.6578616345459479  0.5939367328125978
  0.5289705708800312  0.5042077505272791  0.3141290971432412
  0.8956469495868906  0.9323252863834992  0.6955446353520840
  0.1905164837494389  0.7297170869744305  0.5330952073269860
  0.4587675250134309  0.0838839894262929  0.5278149439422292
  0.1276212330425875  0.3762450443193107  0.4714804053543599
  0.1942761548030303  0.9539926553236645  0.3663412080082459
  0.6657852629636989  0.7683067896563813  0.6605517758524037
  0.6612169238695802  0.0781037490399630  0.5617785498594854
  0.2159162327392240  0.5439618945411671  0.3551222098048703
  0.4270809306750896  0.6924429904517883  0.2972861546412762
  0.4389358705172215  0.4234549347718204  0.5794769684268309
  0.0128865965091573  0.9476044323499638  0.4007931663346072
  0.9739076740717337  0.0522872278403069  0.5175217922758846
  0.2360804978299285  0.4983148538628352  0.6156946593564779
  0.6137288345925707  0.9588107139501276  0.3124211403062636
  0.8139299688023391  0.2739240188808846  0.3055782735063893
  0.0080857053920111  0.6122445465218481  0.4746252931030037
  0.9540109580637431  0.2404560196980080  0.4144188969157676
  0.5195848813515829  0.7032508289964651  0.6161634006606722
  0.4301415254298274  0.3662679032729755  0.3753975791867373
  0.2600047847275981  0.1220485164081836  0.4644752714677828
  0.8426913200588555  0.1841935939820353  0.5312981659080926
  0.1606553415389787  0.2994455784063701  0.6109451608978759
  0.0241463964292456  0.1957500883329287  0.5797935153825824
  0.9042606107415682  0.6850990730737856  0.6373861231055029
  0.6193380427185644  0.8723431686605922  0.2352778975062745
  0.7559562317509614  0.7981470344081784  0.5893649279964679
  0.4973448308652644  0.1450932841246203  0.6309160782905291
  0.8060814100695376  0.6590801165165615  0.4949593230755265
  0.3102255715824466  0.8470376121502100  0.5792550691011190
  0.3738449641771056  0.0172982011032567  0.6780571680521926
  0.3412520529940267  0.2141536794066901  0.4122073263598209
  0.6167657433289956  0.1075506403260032  0.4635796446703322
  0.1498970858968510  0.5429862159503750  0.5146887929678846
  0.5127883206387593  0.4644944696225745  0.4311825986420352
  0.1731235775644217  0.3911766065830961  0.3118096899280740
  0.5283562229027442  0.8924585932861961  0.3797064274297061
  0.8312796767893286  0.5810407026884166  0.3379991625160361
  0.6001496733941281  0.5408286356392805  0.5963880950958491
  0.0113918196251778  0.6471822081616840  0.3230954279905609
  0.7025539534099308  0.4075277471379695  0.5666750084878156
  0.2455058740488869  0.7408805493731225  0.3607394334228879
  0.8809892264811524  0.4813618506227310  0.5317507378878586
  0.8575124743191724  0.0556771413586816  0.4543533414803025
  0.3481362159697341  0.0250444536227606  0.6013391025218178
  0.6962905514235771  0.4186070680124800  0.3223737514602938
  0.7512451027408338  0.1814409450416184  0.3897539670075346
  0.5229497643537769  0.0890021605341235  0.3729739638337390
 -0.0004765654362749  0.8345681209338595  0.5993635473445813
  0.3795282866849958  0.3014241423512857  0.6509109174282027
  0.3966127358486503  0.9689457784870155  0.4270108174115645
  0.6146681163829707  0.5719830382399050  0.3748210344105434
  0.6439065575083920  0.1437641659074326  0.2615694921709785
  0.6948227489364069  0.7616780396630424  0.4034560354392820
  0.8167169797848807  0.8819151103007871  0.3481242385165457
  0.9538338620951246  0.4420490017958844  0.4407172115019325
  0.8642495732834279  0.8527953752852327  0.6671190342708795
  0.5912199997954651  0.5024154672862022  0.5116867658031503
  0.0327288845521818  0.5318994015881031  0.6304343513967621
  0.4017791461585630  0.5523311819443872  0.6534838338325950
  0.6124953504153903  0.6202372178096970  0.2422631287345211
  0.5578769959241024  0.4175569941908778  0.6652990859423931
  0.6108746943304684  0.7428251383261310  0.3252239940787138
  0.7838861443734014  0.7483091567421670  0.2781946442477385
  0.6825236246244102  0.3666222350513524  0.4055414599710253
  0.7557301018170239  0.4374780128245056  0.4884019258867012
  0.2975520181888338  0.4256821795834269  0.4258641285836257
  0.9241922907497916  0.6343997377940832  0.7097991594467874
  0.5478525106780857  0.9010199903755906  0.7084591877143962
  0.8037351990566503  0.9746085635312408  0.2622710175675957
  0.1558178952915340  0.1413137489083552  0.3860341551911647
  0.2066977952648080  0.1380622211839956  0.6580268774573922
  0.5546763733505302  0.8906275704613795  0.5550816880930011
  0.1636780025286909  0.3284093134140815  0.3888702120145841
  0.0762742398644588  0.1603556768383152  0.4654736921659715
  0.2383429100993970  0.3835887244981500  0.5461275394887627
  0.9729565832380275  0.2533316577819912  0.6663231859976241
  0.0625776256135302  0.7774716235660736  0.3679183225075530
  0.9174589469513165  0.0751504787027655  0.3584997677620698
  0.6497264065771386  0.0025960753199434  0.6321715833780133
  0.4328926527967463  0.6188987122744146  0.5344914514286049
  0.8320890645608792  0.4428782749991366  0.6437351186111753
  0.1445385589748567  0.6276350361015255  0.4173039749693672
  0.3994033700351279  0.8368506713935009  0.5065123200247288
  0.1739034445376042  0.6121778257951122  0.6936720683165395
  0.3467076577079532  0.7713584456570850  0.6671002626295329
  0.1778004566345707  0.6640762116831307  0.2880063723793900
  0.1554685817878046  0.0986435353566707  0.3079683575461074
  0.6951921349514435  0.3000288007516372  0.6454129508479065
  0.1710538826942187  0.9085436191318658  0.6326709910177969
  0.2990501917048682  0.2959325453051674  0.4811204867010850
  0.4978518912216146  0.6835608309971362  0.7146562874133934
  0.0971056025436415  0.5828828222064071  0.7625722643267431
  0.7655973139419541  0.7229710317325845  0.7401679409459859
  0.4130472596035605  0.1786157459827787  0.7040696227776639
  0.5052079735498248  0.4662450220552612  0.6699009710613025
  0.1401375998726500  0.5900186264375807  0.7387178851870088
  0.9323238176858265  0.6255986573232226  0.7391843847377590
  0.5160110276615111  0.2857782500305362  0.7648912054344472
 
  0.00000000E+00  0.00000000E+00  0.00000000E+00
  0.00000000E+00  0.00000000E+00  0.00000000E+00
  0.00000000E+00  0.00000000E+00  0.00000000E+00
  0.00000000E+00  0.00000000E+00  0.00000000E+00
  0.00000000E+00  0.00000000E+00  0.00000000E+00
  0.00000000E+00  0.00000000E+00  0.00000000E+00
  0.00000000E+00  0.00000000E+00  0.00000000E+00
  0.00000000E+00  0.00000000E+00  0.00000000E+00
  0.00000000E+00  0.00000000E+00  0.00000000E+00
  0.00000000E+00  0.00000000E+00  0.00000000E+00
  0.00000000E+00  0.00000000E+00  0.00000000E+00
  0.00000000E+00  0.00000000E+00  0.00000000E+00
  0.00000000E+00  0.00000000E+00  0.00000000E+00
  0.00000000E+00  0.00000000E+00  0.00000000E+00
  0.00000000E+00  0.00000000E+00  0.00000000E+00
  0.00000000E+00  0.00000000E+00  0.00000000E+00
  0.00000000E+00  0.00000000E+00  0.00000000E+00
  0.00000000E+00  0.00000000E+00  0.00000000E+00
  0.00000000E+00  0.00000000E+00  0.00000000E+00
  0.00000000E+00  0.00000000E+00  0.00000000E+00
  0.00000000E+00  0.00000000E+00  0.00000000E+00
  0.00000000E+00  0.00000000E+00  0.00000000E+00
  0.00000000E+00  0.00000000E+00  0.00000000E+00
  0.00000000E+00  0.00000000E+00  0.00000000E+00
  0.00000000E+00  0.00000000E+00  0.00000000E+00
  0.00000000E+00  0.00000000E+00  0.00000000E+00
  0.00000000E+00  0.00000000E+00  0.00000000E+00
  0.00000000E+00  0.00000000E+00  0.00000000E+00
  0.00000000E+00  0.00000000E+00  0.00000000E+00
  0.00000000E+00  0.00000000E+00  0.00000000E+00
  0.00000000E+00  0.00000000E+00  0.00000000E+00
  0.00000000E+00  0.00000000E+00  0.00000000E+00
  0.00000000E+00  0.00000000E+00  0.00000000E+00
  0.00000000E+00  0.00000000E+00  0.00000000E+00
  0.00000000E+00  0.00000000E+00  0.00000000E+00
  0.00000000E+00  0.00000000E+00  0.00000000E+00
  0.00000000E+00  0.00000000E+00  0.00000000E+00
  0.00000000E+00  0.00000000E+00  0.00000000E+00
  0.00000000E+00  0.00000000E+00  0.00000000E+00
  0.00000000E+00  0.00000000E+00  0.00000000E+00
  0.00000000E+00  0.00000000E+00  0.00000000E+00
  0.00000000E+00  0.00000000E+00  0.00000000E+00
  0.00000000E+00  0.00000000E+00  0.00000000E+00
  0.00000000E+00  0.00000000E+00  0.00000000E+00
  0.00000000E+00  0.00000000E+00  0.00000000E+00
  0.00000000E+00  0.00000000E+00  0.00000000E+00
  0.00000000E+00  0.00000000E+00  0.00000000E+00
  0.00000000E+00  0.00000000E+00  0.00000000E+00
  0.00000000E+00  0.00000000E+00  0.00000000E+00
  0.00000000E+00  0.00000000E+00  0.00000000E+00
  0.00000000E+00  0.00000000E+00  0.00000000E+00
  0.00000000E+00  0.00000000E+00  0.00000000E+00
  0.00000000E+00  0.00000000E+00  0.00000000E+00
  0.00000000E+00  0.00000000E+00  0.00000000E+00
  0.00000000E+00  0.00000000E+00  0.00000000E+00
  0.00000000E+00  0.00000000E+00  0.00000000E+00
  0.00000000E+00  0.00000000E+00  0.00000000E+00
  0.00000000E+00  0.00000000E+00  0.00000000E+00
  0.00000000E+00  0.00000000E+00  0.00000000E+00
  0.00000000E+00  0.00000000E+00  0.00000000E+00
  0.00000000E+00  0.00000000E+00  0.00000000E+00
  0.00000000E+00  0.00000000E+00  0.00000000E+00
  0.00000000E+00  0.00000000E+00  0.00000000E+00
  0.00000000E+00  0.00000000E+00  0.00000000E+00
  0.00000000E+00  0.00000000E+00  0.00000000E+00
  0.00000000E+00  0.00000000E+00  0.00000000E+00
  0.00000000E+00  0.00000000E+00  0.00000000E+00
  0.00000000E+00  0.00000000E+00  0.00000000E+00
  0.00000000E+00  0.00000000E+00  0.00000000E+00
  0.00000000E+00  0.00000000E+00  0.00000000E+00
  0.00000000E+00  0.00000000E+00  0.00000000E+00
  0.00000000E+00  0.00000000E+00  0.00000000E+00
  0.00000000E+00  0.00000000E+00  0.00000000E+00
  0.00000000E+00  0.00000000E+00  0.00000000E+00
  0.00000000E+00  0.00000000E+00  0.00000000E+00
  0.00000000E+00  0.00000000E+00  0.00000000E+00
  0.00000000E+00  0.00000000E+00  0.00000000E+00
  0.00000000E+00  0.00000000E+00  0.00000000E+00
  0.00000000E+00  0.00000000E+00  0.00000000E+00
  0.00000000E+00  0.00000000E+00  0.00000000E+00
  0.00000000E+00  0.00000000E+00  0.00000000E+00
  0.00000000E+00  0.00000000E+00  0.00000000E+00
  0.00000000E+00  0.00000000E+00  0.00000000E+00
  0.00000000E+00  0.00000000E+00  0.00000000E+00
  0.00000000E+00  0.00000000E+00  0.00000000E+00
  0.00000000E+00  0.00000000E+00  0.00000000E+00
  0.00000000E+00  0.00000000E+00  0.00000000E+00
  0.00000000E+00  0.00000000E+00  0.00000000E+00
  0.00000000E+00  0.00000000E+00  0.00000000E+00
  0.00000000E+00  0.00000000E+00  0.00000000E+00
  0.00000000E+00  0.00000000E+00  0.00000000E+00
  0.00000000E+00  0.00000000E+00  0.00000000E+00
  0.00000000E+00  0.00000000E+00  0.00000000E+00
  0.00000000E+00  0.00000000E+00  0.00000000E+00
  0.00000000E+00  0.00000000E+00  0.00000000E+00
  0.00000000E+00  0.00000000E+00  0.00000000E+00
  0.00000000E+00  0.00000000E+00  0.00000000E+00
  0.00000000E+00  0.00000000E+00  0.00000000E+00
  0.00000000E+00  0.00000000E+00  0.00000000E+00
  0.00000000E+00  0.00000000E+00  0.00000000E+00
  0.00000000E+00  0.00000000E+00  0.00000000E+00
  0.00000000E+00  0.00000000E+00  0.00000000E+00
  0.00000000E+00  0.00000000E+00  0.00000000E+00
  0.00000000E+00  0.00000000E+00  0.00000000E+00
  0.00000000E+00  0.00000000E+00  0.00000000E+00
  0.00000000E+00  0.00000000E+00  0.00000000E+00
  0.00000000E+00  0.00000000E+00  0.00000000E+00
  0.00000000E+00  0.00000000E+00  0.00000000E+00
  0.00000000E+00  0.00000000E+00  0.00000000E+00
  0.00000000E+00  0.00000000E+00  0.00000000E+00
  0.00000000E+00  0.00000000E+00  0.00000000E+00
  0.00000000E+00  0.00000000E+00  0.00000000E+00
  0.00000000E+00  0.00000000E+00  0.00000000E+00
  0.00000000E+00  0.00000000E+00  0.00000000E+00
  0.00000000E+00  0.00000000E+00  0.00000000E+00
  0.00000000E+00  0.00000000E+00  0.00000000E+00
  0.00000000E+00  0.00000000E+00  0.00000000E+00
  0.00000000E+00  0.00000000E+00  0.00000000E+00
  0.00000000E+00  0.00000000E+00  0.00000000E+00
  0.00000000E+00  0.00000000E+00  0.00000000E+00
  0.00000000E+00  0.00000000E+00  0.00000000E+00
  0.00000000E+00  0.00000000E+00  0.00000000E+00
  0.00000000E+00  0.00000000E+00  0.00000000E+00
  0.00000000E+00  0.00000000E+00  0.00000000E+00
  0.00000000E+00  0.00000000E+00  0.00000000E+00
  0.00000000E+00  0.00000000E+00  0.00000000E+00
  0.00000000E+00  0.00000000E+00  0.00000000E+00
  0.00000000E+00  0.00000000E+00  0.00000000E+00
  0.00000000E+00  0.00000000E+00  0.00000000E+00
  0.00000000E+00  0.00000000E+00  0.00000000E+00
  0.00000000E+00  0.00000000E+00  0.00000000E+00
  0.00000000E+00  0.00000000E+00  0.00000000E+00
  0.00000000E+00  0.00000000E+00  0.00000000E+00
  0.00000000E+00  0.00000000E+00  0.00000000E+00
  0.00000000E+00  0.00000000E+00  0.00000000E+00
  0.00000000E+00  0.00000000E+00  0.00000000E+00
  0.00000000E+00  0.00000000E+00  0.00000000E+00
  0.00000000E+00  0.00000000E+00  0.00000000E+00
  0.00000000E+00  0.00000000E+00  0.00000000E+00
  0.00000000E+00  0.00000000E+00  0.00000000E+00
  0.00000000E+00  0.00000000E+00  0.00000000E+00
  0.00000000E+00  0.00000000E+00  0.00000000E+00
  0.00000000E+00  0.00000000E+00  0.00000000E+00
  0.00000000E+00  0.00000000E+00  0.00000000E+00
  0.00000000E+00  0.00000000E+00  0.00000000E+00
  0.00000000E+00  0.00000000E+00  0.00000000E+00
  0.00000000E+00  0.00000000E+00  0.00000000E+00
  0.00000000E+00  0.00000000E+00  0.00000000E+00
  0.00000000E+00  0.00000000E+00  0.00000000E+00
  0.00000000E+00  0.00000000E+00  0.00000000E+00
  0.00000000E+00  0.00000000E+00  0.00000000E+00
  0.00000000E+00  0.00000000E+00  0.00000000E+00
  0.00000000E+00  0.00000000E+00  0.00000000E+00
  0.00000000E+00  0.00000000E+00  0.00000000E+00
  0.00000000E+00  0.00000000E+00  0.00000000E+00
  0.00000000E+00  0.00000000E+00  0.00000000E+00
  0.00000000E+00  0.00000000E+00  0.00000000E+00
  0.00000000E+00  0.00000000E+00  0.00000000E+00
  0.00000000E+00  0.00000000E+00  0.00000000E+00
  0.00000000E+00  0.00000000E+00  0.00000000E+00
  0.00000000E+00  0.00000000E+00  0.00000000E+00
  0.00000000E+00  0.00000000E+00  0.00000000E+00
  0.00000000E+00  0.00000000E+00  0.00000000E+00
  0.00000000E+00  0.00000000E+00  0.00000000E+00
  0.00000000E+00  0.00000000E+00  0.00000000E+00
  0.00000000E+00  0.00000000E+00  0.00000000E+00
  0.00000000E+00  0.00000000E+00  0.00000000E+00
  0.00000000E+00  0.00000000E+00  0.00000000E+00
  0.00000000E+00  0.00000000E+00  0.00000000E+00
  0.00000000E+00  0.00000000E+00  0.00000000E+00
  0.00000000E+00  0.00000000E+00  0.00000000E+00
  0.00000000E+00  0.00000000E+00  0.00000000E+00
  0.00000000E+00  0.00000000E+00  0.00000000E+00
  0.00000000E+00  0.00000000E+00  0.00000000E+00
  0.00000000E+00  0.00000000E+00  0.00000000E+00
  0.00000000E+00  0.00000000E+00  0.00000000E+00
  0.00000000E+00  0.00000000E+00  0.00000000E+00
  0.00000000E+00  0.00000000E+00  0.00000000E+00
  0.00000000E+00  0.00000000E+00  0.00000000E+00
  0.00000000E+00  0.00000000E+00  0.00000000E+00
  0.00000000E+00  0.00000000E+00  0.00000000E+00
  0.00000000E+00  0.00000000E+00  0.00000000E+00
  0.00000000E+00  0.00000000E+00  0.00000000E+00
  0.00000000E+00  0.00000000E+00  0.00000000E+00
  0.00000000E+00  0.00000000E+00  0.00000000E+00
  0.00000000E+00  0.00000000E+00  0.00000000E+00
  0.00000000E+00  0.00000000E+00  0.00000000E+00
  0.00000000E+00  0.00000000E+00  0.00000000E+00
  0.00000000E+00  0.00000000E+00  0.00000000E+00
  0.00000000E+00  0.00000000E+00  0.00000000E+00
  0.00000000E+00  0.00000000E+00  0.00000000E+00
  0.00000000E+00  0.00000000E+00  0.00000000E+00
  0.00000000E+00  0.00000000E+00  0.00000000E+00
  0.00000000E+00  0.00000000E+00  0.00000000E+00
  0.00000000E+00  0.00000000E+00  0.00000000E+00
  0.00000000E+00  0.00000000E+00  0.00000000E+00
  0.00000000E+00  0.00000000E+00  0.00000000E+00
  0.00000000E+00  0.00000000E+00  0.00000000E+00
  0.00000000E+00  0.00000000E+00  0.00000000E+00
  0.00000000E+00  0.00000000E+00  0.00000000E+00
  0.00000000E+00  0.00000000E+00  0.00000000E+00
  0.00000000E+00  0.00000000E+00  0.00000000E+00
  0.00000000E+00  0.00000000E+00  0.00000000E+00
  0.00000000E+00  0.00000000E+00  0.00000000E+00
  0.00000000E+00  0.00000000E+00  0.00000000E+00
  0.00000000E+00  0.00000000E+00  0.00000000E+00
  0.00000000E+00  0.00000000E+00  0.00000000E+00
  0.00000000E+00  0.00000000E+00  0.00000000E+00
  0.00000000E+00  0.00000000E+00  0.00000000E+00
  0.00000000E+00  0.00000000E+00  0.00000000E+00
  0.00000000E+00  0.00000000E+00  0.00000000E+00
  0.00000000E+00  0.00000000E+00  0.00000000E+00
  0.00000000E+00  0.00000000E+00  0.00000000E+00
  0.00000000E+00  0.00000000E+00  0.00000000E+00
  0.00000000E+00  0.00000000E+00  0.00000000E+00
  0.00000000E+00  0.00000000E+00  0.00000000E+00
  0.00000000E+00  0.00000000E+00  0.00000000E+00
  0.00000000E+00  0.00000000E+00  0.00000000E+00
  0.00000000E+00  0.00000000E+00  0.00000000E+00
  0.00000000E+00  0.00000000E+00  0.00000000E+00
  0.00000000E+00  0.00000000E+00  0.00000000E+00
  0.00000000E+00  0.00000000E+00  0.00000000E+00
  0.00000000E+00  0.00000000E+00  0.00000000E+00
  0.00000000E+00  0.00000000E+00  0.00000000E+00
