Hf  O  F  H                             
   1.00000000000000     
    13.7225301000000002    0.0000000000000000    0.0000000000000000
     0.0000000000000000   13.7225301000000002    0.0000000000000000
     0.0000000000000000    0.0000000000000000   32.7225301000000002
   Hf   O    F    H 
    72   144     8     8
Direct
  0.1335541732812400  0.8641573333913235  0.4185313051284742
  0.8600162804646850  0.9437064888972840  0.5066651747721804
  0.0238813227428118  0.6225829401977447  0.3973376593007042
  0.8739334547520378  0.6378875741056675  0.3044606456562489
  0.0749318852550604  0.7828823305775938  0.3174100932119054
  0.3954372065586717  0.9450606579165967  0.5541393819793189
  0.6307045042777528  0.5132096803329428  0.2776367759830505
  0.6831850252560044  0.7493667030532735  0.2784565777642087
  0.0308197232476616  0.6516078947602633  0.6680200365357327
  0.2821378723078922  0.0529833866606005  0.4145151053294355
  0.9253094017454470  0.7341814853807619  0.4702802890477246
  0.2876019966225726  0.7584672280733099  0.2981761592751607
  0.1011293026576331  0.5257754363602252  0.3118796721740351
  0.3428490643268800  0.1676861525834407  0.5232893025705753
  0.5323205640310424  0.0167910069345681  0.6830606691076211
  0.2572185349836467  0.6206445499674039  0.6556341759455288
  0.5546867377679160  0.3672527769556668  0.5402488544388531
  0.4667405231799331  0.9857298403367838  0.3268518418563777
  0.2864277231334316  0.6536015267757372  0.3899136705147975
  0.9022123275051505  0.7175884864463834  0.5675090844749116
  0.8352895771554302  0.4265629034505767  0.3156026150821152
  0.9121427543173951  0.0993864704153947  0.5755215856866696
  0.0105989063804429  0.3512354192375410  0.3904111013735529
  0.9156753676697237  0.4859925233882025  0.5929489437443085
  0.1298063468208267  0.5393162846818849  0.5830040020027065
  0.1795408051953979  0.2451937827729407  0.4454318954262082
  0.1110467507585616  0.2850598838454849  0.5435043567096943
  0.7418229307065554  0.5462891611887363  0.5200901018731718
  0.3446886956146405  0.1452809974577650  0.6369979918825525
  0.6628563064028046  0.1538453048686356  0.6178264045800339
  0.5269756948595786  0.3367279852476640  0.6655656238882903
  0.2658174511654149  0.4474128522767413  0.4944919001838698
  0.3035606520964918  0.3588514699049312  0.6042956674561661
  0.8572365819502379  0.9736249260342265  0.4097968446669054
  0.1527337406987291  0.0425847732366139  0.5090718605167455
  0.8023673212561546  0.7475241458276057  0.6628265262618415
  0.4925756280254302  0.6450683062749828  0.3471581360811848
  0.0115810295293007  0.4668673451532352  0.4986350282048359
  0.8809877658656596  0.9180395031857295  0.3030593776117640
  0.4191257087057585  0.8145445647893207  0.4443648197634623
  0.4261364826752109  0.3320738780695152  0.4484783725476472
  0.6045105395932661  0.8075877414156651  0.5058703401479284
  0.3479968820995712  0.7074211281287451  0.5440630205000309
  0.1577613591691383  0.8235628338326325  0.5808546706371309
  0.6783700079062430  0.2282312773730442  0.4338532637410362
  0.5616875118354181  0.0018401133410745  0.4191857132903198
  0.3109023323064680  0.9169753120734847  0.6567756811977441
  0.4860129374054527  0.5607909623246102  0.4833669733614369
  0.5920522377453207  0.1451546443276024  0.5222325960680135
  0.0631835802831649  0.0516087660679770  0.3633992333549616
  0.8061508246163466  0.4170766942638672  0.4320200874131178
  0.7009678355018814  0.9249751387671727  0.5910144407939508
  0.5579078505540772  0.7764829517109106  0.6783983016508847
  0.6775990628605681  0.8446673440163803  0.3665306094243204
  0.2572329307674867  0.9938683509455700  0.3100617536503165
  0.4657684496446222  0.5620600818973348  0.6073455706088985
  0.6507979390702028  0.2823076526147112  0.2905703228026558
  0.6487816338043574  0.7007143664103130  0.5921192987997526
  0.0106189964709927  0.8985220149070117  0.6460540480365041
  0.7475504215106307  0.6331488311335438  0.3938704593075382
  0.2948960294994471  0.4203436909024261  0.3706922317069263
  0.6953690678457515  0.0425962968751769  0.2695577195618297
  0.5665588992330215  0.4295679979972405  0.3751433914069002
  0.4334854390693539  0.2141106532549583  0.3650872031703847
  0.6921961162637674  0.4899204536087881  0.6282516639695924
  0.1655458219680232  0.6678956142019736  0.4788723147875985
  0.8246837451869824  0.2981312020954759  0.6482679278071110
  0.8510475712438926  0.1923556648277917  0.3433738902080422
  0.0858428135941560  0.1791789976753477  0.6337051267297543
  0.8091665606750188  0.3241974515847449  0.5326576320456290
  0.9373786847898455  0.1824181106458260  0.4784884854591082
  0.1632213253900006  0.2522353724528972  0.3310858286680123
  0.3062975657200898  0.2841056984138184  0.3358288834869357
  0.9323807420457105  0.8219296537830327  0.5224803884829433
  0.3608636373758807  0.8784517134342457  0.3213650752290267
  0.5493017983750262  0.8887720547972934  0.4588533538106327
  0.0491051926667416  0.4219380658064152  0.5612660509486322
  0.0432315368308427  0.4906493803427784  0.3691324410515751
  0.0022722365473802  0.0511443035177480  0.6267680619036486
  0.3170729478665088  0.6029792683183047  0.4878723017747956
  0.1850607744120262  0.9688373161561171  0.4547616616585207
  0.0125088895967296  0.2321478645169100  0.3451870096261172
  0.3732203804257158  0.0390332559302138  0.2820044303221612
  0.1314693112443061  0.9261074857868044  0.5429985875430595
  0.4616484884090721  0.8834918854074040  0.6621433256567428
  0.7027538716160546  0.9665139193538015  0.4047809504093176
  0.2968294283969141  0.0136650656846452  0.5255967751050544
  0.5324661174789747  0.3325883275575588  0.7234072275236729
  0.0541458790049134  0.7894529807526121  0.6800295477697191
  0.7563246782671684  0.5558779079226847  0.4440975719014811
  0.8760277383383496  0.3386970409451038  0.5896281219430889
  0.3549182762905598  0.2217039691287302  0.5810331436070312
  0.8345146254356437  0.9751883983527809  0.5687046812266676
  0.2646786317584608  0.7677862914413515  0.4398022908309146
  0.0214164162888968  0.9355374589451732  0.3225968289991148
  0.7200850024936672  0.8955346821533053  0.5120109074044001
  0.3894614050570362  0.5512294431043034  0.3766936596772908
  0.9400667420382564  0.7791369246434254  0.2887160344735885
  0.8220210925306637  0.2660518549957431  0.4502003337646413
  0.0724279343316518  0.7811525638311178  0.4637310609327484
  0.1441264200833566  0.6711361927396243  0.6169092935807842
  0.8696440177598733  0.3455763098551560  0.3688979549541784
  0.5090615429197092  0.7038649955914327  0.4672644897075288
  0.7944478350326695  0.5807677500281329  0.5790509890427669
  0.2017822305529264  0.1615546403942001  0.5457424910043283
  0.5443192840429950  0.2810763775477096  0.3308682581314911
  0.9554968121178984  0.4987711772694764  0.2915245531179432
  0.6586894445652119  0.6821738758912727  0.5267730243100164
  0.5331501185040992  0.2525362268500253  0.4183089697166127
  0.0015193789937902  0.6067656680634913  0.5596888686698911
  0.9618976448707005  0.3130749131511582  0.5098843247552665
  0.4770744039330571  0.2526686911622842  0.5052440493305181
  0.4163690119430817  0.4319761259925982  0.5016514535088001
  0.8927750242639099  0.6800924327122843  0.4124266557947363
  0.4204339994556840  0.7309961550110556  0.3924269493743677
  0.5507711709035833  0.1745922347589449  0.6631491926047510
  0.7782296980549965  0.5379494259326959  0.2778304075884493
  0.8670785807316522  0.8645487164652388  0.4507421696808597
  0.5914053835714752  0.2397979830611228  0.5734527196802759
  0.6631658658534305  0.2685464052557185  0.5003959059522926
  0.8087346233447620  0.1716137824290526  0.6087053211458769
  0.1859039270175660  0.8693279623328137  0.2861858460371633
  0.3425674440930600  0.0749717484939753  0.3561465911380357
  0.7091037703049891  0.6358004971013478  0.6454113670001626
  0.3305518939705372  0.6333316255795557  0.5966144217981679
  0.5224162949469530  0.5115649327180964  0.3181402855941317
  0.8783751235414560  0.8845960090261495  0.6846537482428885
  0.2007814297430086  0.7242601353441327  0.5346823169793284
  0.4666890231952978  0.0699273374760328  0.5322862881206999
  0.1301819606103436  0.3710650999656186  0.4821546982933939
  0.1939597391879506  0.9582432162732848  0.3724138284248964
  0.6668987700667488  0.8187949052338958  0.6390632453434943
  0.6589259342221436  0.0613620932441050  0.5654653920333144
  0.2233792828327385  0.5407395913937730  0.3481378986812156
  0.4007020780993194  0.6733885638713624  0.3017965084598369
  0.4472421262003221  0.4150935085018239  0.5846551787330948
  0.0174046930121556  0.9570392094698870  0.4093474368095661
  0.9775077215057840  0.0480189193873864  0.5195790496222475
  0.2361864885911973  0.4852279582703404  0.6239968232442948
  0.5827288801997454  0.9739727161294912  0.2917859351343953
  0.8037520649153929  0.2837644219867198  0.2962987097161516
  0.0189811489301905  0.6074579909293590  0.4671079415773929
  0.0189251410550507  0.2456869225328543  0.4303422862569076
  0.5191188580987353  0.6972703200961794  0.6263915741895587
  0.4296212638870652  0.3664354285371401  0.3797520478429947
  0.2579722623204499  0.1249128830789961  0.4692012472884366
  0.8410965153048161  0.1779627438073574  0.5289901698010281
  0.1703757027609236  0.2881180143213590  0.6094293108606054
  0.0236016230981376  0.1990288575545917  0.5778837760849669
  0.9088122089843101  0.6816092957893060  0.6294702808701498
  0.7540926002146171  0.8834310362454523  0.2705670374429285
  0.7744941293678419  0.7843794270406215  0.5838022133874471
  0.5025583634550735  0.1203810685623146  0.6287197853375445
  0.8445505433928014  0.6606292975782709  0.5096125518988418
  0.3180438243723113  0.8312509691221912  0.5832718024377257
  0.3849149359808401  0.0503055905281860  0.6839716671587477
  0.3443207691888627  0.2137463380853228  0.4156340752334851
  0.6177294474163587  0.1021908561830407  0.4610380620350011
  0.1500939141516002  0.5402821799684139  0.5144381232836952
  0.5104000909449186  0.4593594351391029  0.4351672016660330
  0.1381021001576054  0.3819797896895344  0.3045583720647577
  0.5412671206078886  0.9016966038720833  0.3723480667592666
  0.8342114534379601  0.5441867384687638  0.3561987449206012
  0.6059330968357933  0.5588395539623867  0.5858197915047572
  0.0108896249668084  0.6448523326489006  0.3332088847732683
  0.6987579811495797  0.4079354196795755  0.5637041534035616
  0.2289244720281593  0.7494790650673663  0.3525220826889531
  0.8821217812312199  0.4718011422557725  0.5301304049255681
  0.8542041816365152  0.0572659960031750  0.4595221764317245
  0.3549133679627005  0.0114577598682477  0.6077100342630100
  0.6845000619983770  0.4184218095985907  0.3236667064369650
  0.7432583902469253  0.1782237445733502  0.3810734373158359
  0.5208424075661029  0.0893896797815222  0.3698916188505313
  0.0113472417388975  0.8189731609639482  0.5949950837406739
  0.3849451443891133  0.2932861746226757  0.6529939562597101
  0.3980190014891893  0.9626739048590381  0.4274084325859245
  0.6133219502263898  0.5753308199408791  0.3793241070803748
  0.6485419830397514  0.1701810853328835  0.2529369643607547
  0.6891472615941749  0.7588951029709569  0.4119890476829601
  0.8239470583485413  0.8925270965490668  0.3559929869266000
  0.9545270349549324  0.4381761579381184  0.4385223667582733
  0.8536801924479107  0.8857796555685628  0.6399325993514573
  0.5976319837863857  0.4924502450521490  0.5088356898565030
  0.0313834947036196  0.5191799687667932  0.6300395374779045
  0.3913565778519310  0.5591637139107842  0.6672818987365916
  0.6217464256474438  0.6433930123045613  0.2482637932783883
  0.5514062693176454  0.4753022903432608  0.6509982823915578
  0.5889838822311733  0.7550990210917694  0.3258381222437641
  0.7643414353208295  0.7170761013458370  0.3329627659654725
  0.6818506909840498  0.3679768095885179  0.4056414275019136
  0.7614145189972671  0.4159376754170087  0.4878019979858266
  0.2961716180846891  0.4209338572520653  0.4324504759776164
  0.8973882661856355  0.6630569623995661  0.7037154029533742
  0.5800804702772203  0.8973693324799238  0.7175980422866512
  0.8303971976747633  0.0622978470496573  0.2965980950561784
  0.1601610836339598  0.1401478148057738  0.3962506570013659
  0.2077173010073351  0.1214995859026017  0.6531577323730708
  0.5794779286729340  0.8481414559246917  0.5652605059456633
  0.1637968122493991  0.3322229386991501  0.3869713128124175
  0.0889918647429552  0.1790344182894598  0.4903009002498908
  0.2381856691163059  0.3926225977033356  0.5507273418264825
  0.9772535352669258  0.2524771303864033  0.6667476052021013
  0.0596443263864981  0.7687299481108884  0.3801996923432905
  0.9174516086656020  0.0767475509717478  0.3704620117835833
  0.6524403638103233  0.0113284071052460  0.6407842348831795
  0.4613477999859716  0.6155335681836339  0.5433678777685037
  0.8311992486485766  0.4517593839858315  0.6429981771717959
  0.1656166022339099  0.6080470455442539  0.4207339033931959
  0.4110542991111807  0.8271053923169474  0.5119963425768423
  0.1518545153319744  0.6027977346330887  0.6950023265399693
  0.2929788535717284  0.7641429035198395  0.6737858181754985
  0.1575560189555518  0.6699575380577967  0.2862947873937287
  0.1533376316904865  0.1056836198647758  0.3132702472103243
  0.6736829259063059  0.3268012354942270  0.6411775885471885
  0.1677784788931591  0.9066883435469208  0.6321710216807988
  0.2964042711781958  0.2914757702429943  0.4869058005372389
  0.6994094621419976  0.7506083886041296  0.7107325303481430
  0.8297440869489372  0.3429977994814458  0.7079172500176154
  0.3257468744732284  0.1644629704181173  0.7423988958964740
  0.5615860023456044  0.0815683508711157  0.7340070353349427
  0.2512144657046133  0.9274372364896469  0.7102285674876191
  0.5025077648497837  0.6764367391996733  0.7143997681992108
  0.7071965176692392  0.4721956902426130  0.7023672734604849
  0.7435806765086281  0.1818500301741467  0.6756640478182506
  0.8907677827682088  0.6661619394419309  0.7332503052531875
  0.9831861723040305  0.2747646845461327  0.6949859658662312
  0.3440141377954405  0.1103352147413739  0.7249039174918600
  0.6318579445539712  0.9034485963407912  0.7377069528535761
  0.2514323945122766  0.7775697987884493  0.6976912514182008
  0.4359006627608875  0.5798799537815877  0.6893224706264842
  0.7598910707112754  0.4236135498878683  0.7084228947895502
  0.5050438750351804  0.2885189311179677  0.7436639758363345
 
  0.00000000E+00  0.00000000E+00  0.00000000E+00
  0.00000000E+00  0.00000000E+00  0.00000000E+00
  0.00000000E+00  0.00000000E+00  0.00000000E+00
  0.00000000E+00  0.00000000E+00  0.00000000E+00
  0.00000000E+00  0.00000000E+00  0.00000000E+00
  0.00000000E+00  0.00000000E+00  0.00000000E+00
  0.00000000E+00  0.00000000E+00  0.00000000E+00
  0.00000000E+00  0.00000000E+00  0.00000000E+00
  0.00000000E+00  0.00000000E+00  0.00000000E+00
  0.00000000E+00  0.00000000E+00  0.00000000E+00
  0.00000000E+00  0.00000000E+00  0.00000000E+00
  0.00000000E+00  0.00000000E+00  0.00000000E+00
  0.00000000E+00  0.00000000E+00  0.00000000E+00
  0.00000000E+00  0.00000000E+00  0.00000000E+00
  0.00000000E+00  0.00000000E+00  0.00000000E+00
  0.00000000E+00  0.00000000E+00  0.00000000E+00
  0.00000000E+00  0.00000000E+00  0.00000000E+00
  0.00000000E+00  0.00000000E+00  0.00000000E+00
  0.00000000E+00  0.00000000E+00  0.00000000E+00
  0.00000000E+00  0.00000000E+00  0.00000000E+00
  0.00000000E+00  0.00000000E+00  0.00000000E+00
  0.00000000E+00  0.00000000E+00  0.00000000E+00
  0.00000000E+00  0.00000000E+00  0.00000000E+00
  0.00000000E+00  0.00000000E+00  0.00000000E+00
  0.00000000E+00  0.00000000E+00  0.00000000E+00
  0.00000000E+00  0.00000000E+00  0.00000000E+00
  0.00000000E+00  0.00000000E+00  0.00000000E+00
  0.00000000E+00  0.00000000E+00  0.00000000E+00
  0.00000000E+00  0.00000000E+00  0.00000000E+00
  0.00000000E+00  0.00000000E+00  0.00000000E+00
  0.00000000E+00  0.00000000E+00  0.00000000E+00
  0.00000000E+00  0.00000000E+00  0.00000000E+00
  0.00000000E+00  0.00000000E+00  0.00000000E+00
  0.00000000E+00  0.00000000E+00  0.00000000E+00
  0.00000000E+00  0.00000000E+00  0.00000000E+00
  0.00000000E+00  0.00000000E+00  0.00000000E+00
  0.00000000E+00  0.00000000E+00  0.00000000E+00
  0.00000000E+00  0.00000000E+00  0.00000000E+00
  0.00000000E+00  0.00000000E+00  0.00000000E+00
  0.00000000E+00  0.00000000E+00  0.00000000E+00
  0.00000000E+00  0.00000000E+00  0.00000000E+00
  0.00000000E+00  0.00000000E+00  0.00000000E+00
  0.00000000E+00  0.00000000E+00  0.00000000E+00
  0.00000000E+00  0.00000000E+00  0.00000000E+00
  0.00000000E+00  0.00000000E+00  0.00000000E+00
  0.00000000E+00  0.00000000E+00  0.00000000E+00
  0.00000000E+00  0.00000000E+00  0.00000000E+00
  0.00000000E+00  0.00000000E+00  0.00000000E+00
  0.00000000E+00  0.00000000E+00  0.00000000E+00
  0.00000000E+00  0.00000000E+00  0.00000000E+00
  0.00000000E+00  0.00000000E+00  0.00000000E+00
  0.00000000E+00  0.00000000E+00  0.00000000E+00
  0.00000000E+00  0.00000000E+00  0.00000000E+00
  0.00000000E+00  0.00000000E+00  0.00000000E+00
  0.00000000E+00  0.00000000E+00  0.00000000E+00
  0.00000000E+00  0.00000000E+00  0.00000000E+00
  0.00000000E+00  0.00000000E+00  0.00000000E+00
  0.00000000E+00  0.00000000E+00  0.00000000E+00
  0.00000000E+00  0.00000000E+00  0.00000000E+00
  0.00000000E+00  0.00000000E+00  0.00000000E+00
  0.00000000E+00  0.00000000E+00  0.00000000E+00
  0.00000000E+00  0.00000000E+00  0.00000000E+00
  0.00000000E+00  0.00000000E+00  0.00000000E+00
  0.00000000E+00  0.00000000E+00  0.00000000E+00
  0.00000000E+00  0.00000000E+00  0.00000000E+00
  0.00000000E+00  0.00000000E+00  0.00000000E+00
  0.00000000E+00  0.00000000E+00  0.00000000E+00
  0.00000000E+00  0.00000000E+00  0.00000000E+00
  0.00000000E+00  0.00000000E+00  0.00000000E+00
  0.00000000E+00  0.00000000E+00  0.00000000E+00
  0.00000000E+00  0.00000000E+00  0.00000000E+00
  0.00000000E+00  0.00000000E+00  0.00000000E+00
  0.00000000E+00  0.00000000E+00  0.00000000E+00
  0.00000000E+00  0.00000000E+00  0.00000000E+00
  0.00000000E+00  0.00000000E+00  0.00000000E+00
  0.00000000E+00  0.00000000E+00  0.00000000E+00
  0.00000000E+00  0.00000000E+00  0.00000000E+00
  0.00000000E+00  0.00000000E+00  0.00000000E+00
  0.00000000E+00  0.00000000E+00  0.00000000E+00
  0.00000000E+00  0.00000000E+00  0.00000000E+00
  0.00000000E+00  0.00000000E+00  0.00000000E+00
  0.00000000E+00  0.00000000E+00  0.00000000E+00
  0.00000000E+00  0.00000000E+00  0.00000000E+00
  0.00000000E+00  0.00000000E+00  0.00000000E+00
  0.00000000E+00  0.00000000E+00  0.00000000E+00
  0.00000000E+00  0.00000000E+00  0.00000000E+00
  0.00000000E+00  0.00000000E+00  0.00000000E+00
  0.00000000E+00  0.00000000E+00  0.00000000E+00
  0.00000000E+00  0.00000000E+00  0.00000000E+00
  0.00000000E+00  0.00000000E+00  0.00000000E+00
  0.00000000E+00  0.00000000E+00  0.00000000E+00
  0.00000000E+00  0.00000000E+00  0.00000000E+00
  0.00000000E+00  0.00000000E+00  0.00000000E+00
  0.00000000E+00  0.00000000E+00  0.00000000E+00
  0.00000000E+00  0.00000000E+00  0.00000000E+00
  0.00000000E+00  0.00000000E+00  0.00000000E+00
  0.00000000E+00  0.00000000E+00  0.00000000E+00
  0.00000000E+00  0.00000000E+00  0.00000000E+00
  0.00000000E+00  0.00000000E+00  0.00000000E+00
  0.00000000E+00  0.00000000E+00  0.00000000E+00
  0.00000000E+00  0.00000000E+00  0.00000000E+00
  0.00000000E+00  0.00000000E+00  0.00000000E+00
  0.00000000E+00  0.00000000E+00  0.00000000E+00
  0.00000000E+00  0.00000000E+00  0.00000000E+00
  0.00000000E+00  0.00000000E+00  0.00000000E+00
  0.00000000E+00  0.00000000E+00  0.00000000E+00
  0.00000000E+00  0.00000000E+00  0.00000000E+00
  0.00000000E+00  0.00000000E+00  0.00000000E+00
  0.00000000E+00  0.00000000E+00  0.00000000E+00
  0.00000000E+00  0.00000000E+00  0.00000000E+00
  0.00000000E+00  0.00000000E+00  0.00000000E+00
  0.00000000E+00  0.00000000E+00  0.00000000E+00
  0.00000000E+00  0.00000000E+00  0.00000000E+00
  0.00000000E+00  0.00000000E+00  0.00000000E+00
  0.00000000E+00  0.00000000E+00  0.00000000E+00
  0.00000000E+00  0.00000000E+00  0.00000000E+00
  0.00000000E+00  0.00000000E+00  0.00000000E+00
  0.00000000E+00  0.00000000E+00  0.00000000E+00
  0.00000000E+00  0.00000000E+00  0.00000000E+00
  0.00000000E+00  0.00000000E+00  0.00000000E+00
  0.00000000E+00  0.00000000E+00  0.00000000E+00
  0.00000000E+00  0.00000000E+00  0.00000000E+00
  0.00000000E+00  0.00000000E+00  0.00000000E+00
  0.00000000E+00  0.00000000E+00  0.00000000E+00
  0.00000000E+00  0.00000000E+00  0.00000000E+00
  0.00000000E+00  0.00000000E+00  0.00000000E+00
  0.00000000E+00  0.00000000E+00  0.00000000E+00
  0.00000000E+00  0.00000000E+00  0.00000000E+00
  0.00000000E+00  0.00000000E+00  0.00000000E+00
  0.00000000E+00  0.00000000E+00  0.00000000E+00
  0.00000000E+00  0.00000000E+00  0.00000000E+00
  0.00000000E+00  0.00000000E+00  0.00000000E+00
  0.00000000E+00  0.00000000E+00  0.00000000E+00
  0.00000000E+00  0.00000000E+00  0.00000000E+00
  0.00000000E+00  0.00000000E+00  0.00000000E+00
  0.00000000E+00  0.00000000E+00  0.00000000E+00
  0.00000000E+00  0.00000000E+00  0.00000000E+00
  0.00000000E+00  0.00000000E+00  0.00000000E+00
  0.00000000E+00  0.00000000E+00  0.00000000E+00
  0.00000000E+00  0.00000000E+00  0.00000000E+00
  0.00000000E+00  0.00000000E+00  0.00000000E+00
  0.00000000E+00  0.00000000E+00  0.00000000E+00
  0.00000000E+00  0.00000000E+00  0.00000000E+00
  0.00000000E+00  0.00000000E+00  0.00000000E+00
  0.00000000E+00  0.00000000E+00  0.00000000E+00
  0.00000000E+00  0.00000000E+00  0.00000000E+00
  0.00000000E+00  0.00000000E+00  0.00000000E+00
  0.00000000E+00  0.00000000E+00  0.00000000E+00
  0.00000000E+00  0.00000000E+00  0.00000000E+00
  0.00000000E+00  0.00000000E+00  0.00000000E+00
  0.00000000E+00  0.00000000E+00  0.00000000E+00
  0.00000000E+00  0.00000000E+00  0.00000000E+00
  0.00000000E+00  0.00000000E+00  0.00000000E+00
  0.00000000E+00  0.00000000E+00  0.00000000E+00
  0.00000000E+00  0.00000000E+00  0.00000000E+00
  0.00000000E+00  0.00000000E+00  0.00000000E+00
  0.00000000E+00  0.00000000E+00  0.00000000E+00
  0.00000000E+00  0.00000000E+00  0.00000000E+00
  0.00000000E+00  0.00000000E+00  0.00000000E+00
  0.00000000E+00  0.00000000E+00  0.00000000E+00
  0.00000000E+00  0.00000000E+00  0.00000000E+00
  0.00000000E+00  0.00000000E+00  0.00000000E+00
  0.00000000E+00  0.00000000E+00  0.00000000E+00
  0.00000000E+00  0.00000000E+00  0.00000000E+00
  0.00000000E+00  0.00000000E+00  0.00000000E+00
  0.00000000E+00  0.00000000E+00  0.00000000E+00
  0.00000000E+00  0.00000000E+00  0.00000000E+00
  0.00000000E+00  0.00000000E+00  0.00000000E+00
  0.00000000E+00  0.00000000E+00  0.00000000E+00
  0.00000000E+00  0.00000000E+00  0.00000000E+00
  0.00000000E+00  0.00000000E+00  0.00000000E+00
  0.00000000E+00  0.00000000E+00  0.00000000E+00
  0.00000000E+00  0.00000000E+00  0.00000000E+00
  0.00000000E+00  0.00000000E+00  0.00000000E+00
  0.00000000E+00  0.00000000E+00  0.00000000E+00
  0.00000000E+00  0.00000000E+00  0.00000000E+00
  0.00000000E+00  0.00000000E+00  0.00000000E+00
  0.00000000E+00  0.00000000E+00  0.00000000E+00
  0.00000000E+00  0.00000000E+00  0.00000000E+00
  0.00000000E+00  0.00000000E+00  0.00000000E+00
  0.00000000E+00  0.00000000E+00  0.00000000E+00
  0.00000000E+00  0.00000000E+00  0.00000000E+00
  0.00000000E+00  0.00000000E+00  0.00000000E+00
  0.00000000E+00  0.00000000E+00  0.00000000E+00
  0.00000000E+00  0.00000000E+00  0.00000000E+00
  0.00000000E+00  0.00000000E+00  0.00000000E+00
  0.00000000E+00  0.00000000E+00  0.00000000E+00
  0.00000000E+00  0.00000000E+00  0.00000000E+00
  0.00000000E+00  0.00000000E+00  0.00000000E+00
  0.00000000E+00  0.00000000E+00  0.00000000E+00
  0.00000000E+00  0.00000000E+00  0.00000000E+00
  0.00000000E+00  0.00000000E+00  0.00000000E+00
  0.00000000E+00  0.00000000E+00  0.00000000E+00
  0.00000000E+00  0.00000000E+00  0.00000000E+00
  0.00000000E+00  0.00000000E+00  0.00000000E+00
  0.00000000E+00  0.00000000E+00  0.00000000E+00
  0.00000000E+00  0.00000000E+00  0.00000000E+00
  0.00000000E+00  0.00000000E+00  0.00000000E+00
  0.00000000E+00  0.00000000E+00  0.00000000E+00
  0.00000000E+00  0.00000000E+00  0.00000000E+00
  0.00000000E+00  0.00000000E+00  0.00000000E+00
  0.00000000E+00  0.00000000E+00  0.00000000E+00
  0.00000000E+00  0.00000000E+00  0.00000000E+00
  0.00000000E+00  0.00000000E+00  0.00000000E+00
  0.00000000E+00  0.00000000E+00  0.00000000E+00
  0.00000000E+00  0.00000000E+00  0.00000000E+00
  0.00000000E+00  0.00000000E+00  0.00000000E+00
  0.00000000E+00  0.00000000E+00  0.00000000E+00
  0.00000000E+00  0.00000000E+00  0.00000000E+00
  0.00000000E+00  0.00000000E+00  0.00000000E+00
  0.00000000E+00  0.00000000E+00  0.00000000E+00
  0.00000000E+00  0.00000000E+00  0.00000000E+00
  0.00000000E+00  0.00000000E+00  0.00000000E+00
  0.00000000E+00  0.00000000E+00  0.00000000E+00
  0.00000000E+00  0.00000000E+00  0.00000000E+00
  0.00000000E+00  0.00000000E+00  0.00000000E+00
  0.00000000E+00  0.00000000E+00  0.00000000E+00
  0.00000000E+00  0.00000000E+00  0.00000000E+00
  0.00000000E+00  0.00000000E+00  0.00000000E+00
  0.00000000E+00  0.00000000E+00  0.00000000E+00
  0.00000000E+00  0.00000000E+00  0.00000000E+00
  0.00000000E+00  0.00000000E+00  0.00000000E+00
  0.00000000E+00  0.00000000E+00  0.00000000E+00
  0.00000000E+00  0.00000000E+00  0.00000000E+00
  0.00000000E+00  0.00000000E+00  0.00000000E+00
  0.00000000E+00  0.00000000E+00  0.00000000E+00
  0.00000000E+00  0.00000000E+00  0.00000000E+00
  0.00000000E+00  0.00000000E+00  0.00000000E+00
  0.00000000E+00  0.00000000E+00  0.00000000E+00
  0.00000000E+00  0.00000000E+00  0.00000000E+00
  0.00000000E+00  0.00000000E+00  0.00000000E+00
  0.00000000E+00  0.00000000E+00  0.00000000E+00
