Hf  O  F  H                             
   1.00000000000000     
    13.7225301000000002    0.0000000000000000    0.0000000000000000
     0.0000000000000000   13.7225301000000002    0.0000000000000000
     0.0000000000000000    0.0000000000000000   32.7225301000000002
   Hf   O    F    H 
    72   144     5     5
Direct
  0.1417403595726934  0.8635539462178268  0.4159488240504978
  0.8715297859732714  0.9474661110008767  0.5056154579200878
  0.0190021890206748  0.6298577551706294  0.3964870652645346
  0.8656337978587474  0.6405222487095121  0.3077234700085130
  0.0708177664243288  0.7802930957788322  0.3162040899835314
  0.3935790932264183  0.9447637278361640  0.5559495188349727
  0.6301644919860224  0.5162121520824234  0.2783696838746620
  0.6623109876617483  0.7685857607995067  0.2859433409606211
  0.0556643084812481  0.6515354300435510  0.6691039054559751
  0.2883436923928142  0.0586687866969336  0.4142221418840973
  0.9260731866403674  0.7352134553550007  0.4709717724396739
  0.2879856068309716  0.7477232935538939  0.3077753277818689
  0.0996983366625256  0.5197200122246296  0.3158270732499573
  0.3278322550280693  0.1558997119181731  0.5296871113802132
  0.5329953888129443  0.9908051168707035  0.6621614554793138
  0.2915165371598520  0.6232808560171711  0.6568655878680696
  0.5692601082713162  0.3849820379468507  0.5374278515435371
  0.4776842581848187  0.9676598402459423  0.3219527488393313
  0.2919942401020011  0.6343091354692100  0.3989535811465124
  0.9008519101932358  0.7198296305475206  0.5684561138671153
  0.8361037432299238  0.4234664582895192  0.3138514433100912
  0.9144944967860013  0.0999277401334015  0.5794090377689738
  0.0065593503774401  0.3537831754956846  0.3914951547533157
  0.9286137865826017  0.4949482143919118  0.5945270532364647
  0.1480454457716733  0.5625613544427153  0.5756771202282394
  0.1702163226218098  0.2491468371538260  0.4461662893344041
  0.1137593760425004  0.2837481611824461  0.5428998309357523
  0.7452125437319300  0.5462242252344198  0.5213010315398285
  0.3507776548234511  0.1508697676774756  0.6391760086833098
  0.6622293356005876  0.1600744658320181  0.6082540857975400
  0.5390270865075729  0.3236734499074141  0.6698011450733909
  0.2712638470454944  0.4393046526562160  0.4969938361754012
  0.3194912994029671  0.3623902089998736  0.6043946972709184
  0.8612251977340731  0.9739811799354663  0.4088117919625002
  0.1490572437816103  0.0364825096510066  0.5085860853768099
  0.7853768808166735  0.7697660285367196  0.6514122270454750
  0.4915285400254804  0.6330160594644819  0.3522117004745813
  0.0180274966250541  0.4713442193834006  0.4975075443153894
  0.8828018759540219  0.9252524090887662  0.3086177747858672
  0.4141651828297342  0.8136399615784963  0.4489766076645215
  0.4537361732946965  0.3119656464421930  0.4471554534407729
  0.6353782430956362  0.7986117850590068  0.4877608529973302
  0.3637185816165684  0.7120859814326067  0.5518323268465789
  0.1522936525044228  0.8177500979951180  0.5792496654359679
  0.6894959133693885  0.2170325416599019  0.4226067005095918
  0.5539314237408184  0.0017263696986394  0.4168998879655436
  0.2973183595307614  0.9296613466410295  0.6461113544865908
  0.4792915637653085  0.5543028523718264  0.4752573564241287
  0.5692536492235768  0.1537575124448443  0.5142524043642556
  0.0664107889399893  0.0483309296750019  0.3601491175455802
  0.8014369259003412  0.4101277355794669  0.4394732393744603
  0.6923337802785403  0.9326563802330182  0.5753533494241787
  0.5011638685403729  0.7745135990416883  0.6536928649385385
  0.6813820848818501  0.8340894449972917  0.3760243839106583
  0.2652601140039491  0.9877282216877907  0.3103086824003431
  0.4635223600034357  0.5474046788616332  0.6070427537380580
  0.6513738886564212  0.2786090628580696  0.2847606249734159
  0.6337852184879933  0.7143004604695665  0.5803619931531212
  0.0067841287354613  0.8983369817460296  0.6466077700652172
  0.7468770060708068  0.6230072067746993  0.3970311635424384
  0.2961958327455429  0.4044068159356371  0.3755316340728914
  0.6921816482029772  0.0178366175909695  0.2679973888620441
  0.5711045581791137  0.4121801556596325  0.3723786796471344
  0.4380050019913399  0.2029689772186811  0.3591023781637180
  0.6938239166649692  0.5161087715011847  0.6317880636845021
  0.1644621039652318  0.6733143774240725  0.4773995122731222
  0.8319539206507969  0.3070058238718750  0.6491880048069469
  0.8619036510535742  0.1826287528494581  0.3339381113451768
  0.0960428637777002  0.1840087408191109  0.6302229732397033
  0.8287683990185757  0.3314883163199039  0.5396120942423343
  0.9371595326037367  0.1830099801273206  0.4806287577779429
  0.1618104886789823  0.2433028920031037  0.3325106341035716
  0.3037264727313511  0.2776768282105659  0.3374375243988937
  0.9346479279439124  0.8227491285985147  0.5229809446265787
  0.3666385920809422  0.8719543674560754  0.3252091862044071
  0.5441875407353499  0.8918182212326957  0.4596886479607836
  0.0617711614608461  0.4336549851530705  0.5579738251534953
  0.0379588106205487  0.4928364258352075  0.3721736352218512
  0.0063665515537482  0.0544354446975108  0.6267560603153491
  0.3171463641346224  0.5722224834317791  0.4611970844798938
  0.1875291839672847  0.9727898491297889  0.4516722379883111
  0.0144660620869502  0.2017208914781106  0.3437309459242539
  0.3855869605583041  0.0260143058435267  0.2806142230110071
  0.1284753042668198  0.9104411554974934  0.5362770842410138
  0.4559085651866590  0.9040520417612226  0.6231663410017303
  0.7029013340437572  0.9620390741390933  0.4094229096831172
  0.2956682036275697  0.0071378172765542  0.5209731609619518
  0.5528303910903132  0.3271002540492934  0.7233242622339909
  0.0529603534374697  0.7917566817902261  0.6811037111885551
  0.7609069988925593  0.5507201670004034  0.4502007326803569
  0.8972441165248931  0.3478888164184352  0.5925579956207786
  0.3575471399979210  0.2243890278622780  0.5830574654271563
  0.8350734396888518  0.9795284308916529  0.5663631101012196
  0.2624262143270931  0.7681065385619916  0.4448305433899013
  0.0294130146772623  0.9328602244355394  0.3191859345833429
  0.7321539952316305  0.9014385329891350  0.5081430486458214
  0.3907342175862522  0.5344245706780567  0.3802618686908072
  0.9336621057454445  0.7804833202461010  0.2917365770332249
  0.8162644286584028  0.2584642707445733  0.4509593143281028
  0.0712181232338432  0.7833876285989256  0.4618657163232909
  0.1614569191740821  0.6806557683028829  0.6201520125020963
  0.8825458945270681  0.3330451540277037  0.3606578485639664
  0.5102192852915306  0.7043055390042464  0.4698881059348332
  0.8022291989925434  0.5870448167881426  0.5814131328253404
  0.1843654299274786  0.1387800574375634  0.5524843675783535
  0.5451410671211814  0.2788769354887249  0.3243665702680981
  0.9546675404758912  0.4972288275798216  0.2927126220723106
  0.6683592786568652  0.6802257044284156  0.5216346274257900
  0.5547904693927000  0.2551391419719903  0.4038167266604799
  0.0123865609719526  0.6212841497481946  0.5591786664526568
  0.9639975884956135  0.3185630058853875  0.5094802733704767
  0.4356841839565411  0.2093802932556874  0.4939136759892739
  0.4226640811478917  0.4147999799525938  0.4970138186982535
  0.8875231542786541  0.6818873102319043  0.4135002766485449
  0.4211451743006457  0.7175263013849843  0.3988226119442829
  0.5604254844344122  0.1556473009989706  0.6632436709615168
  0.7770915991667590  0.5423686172096306  0.2785338100616375
  0.8740268542761174  0.8670594589571988  0.4500002051548008
  0.6027272549690893  0.2476180664597564  0.5624942697554770
  0.5889592888825870  0.2942550664696744  0.4859047503120594
  0.8129206122978363  0.1720870302420601  0.6152119993223887
  0.1933604422550871  0.8588157706353280  0.2895462564412734
  0.3447649179408792  0.0709503545429891  0.3539237385464371
  0.6771847539252560  0.6642000491971372  0.6400493039507621
  0.3190284184005105  0.6199427290550303  0.5962468429106375
  0.5252397197566869  0.5040775384629753  0.3201587171610062
  0.8692500031402390  0.8798013572214977  0.6833760093708277
  0.2099697453522402  0.7059485942449785  0.5381921421626468
  0.4663766919803062  0.0660336886163628  0.5406095674800087
  0.1282167712161471  0.3798071151734805  0.4770130736460421
  0.1964348180400072  0.9576566397456260  0.3705698546270683
  0.6338964699225715  0.8307020515244397  0.6271111306029944
  0.6588988402536360  0.0716407844674143  0.5539576258454079
  0.2227592793158669  0.5245433541597474  0.3537895025947522
  0.4026866314140953  0.6640900959871940  0.3064740651699850
  0.4542807101506644  0.4101541891647338  0.5790862601359942
  0.0211104542373958  0.9615625501099078  0.4081060628206531
  0.9803783427883971  0.0516288534274289  0.5208963477934495
  0.3289273724825534  0.4818208904921399  0.6421965831652434
  0.5846903955894759  0.9167468289434292  0.2834241874656582
  0.8040714955767019  0.2796772528440031  0.2911653206211752
  0.0143062837859057  0.6092934196002934  0.4673123626415584
  0.0142656720660445  0.2406837168232668  0.4297065089792670
  0.4833532284768801  0.7168139469962052  0.5930157892542941
  0.4315322671542025  0.3529580984571560  0.3784161613449876
  0.2542180971589906  0.1376319212272139  0.4683151072411849
  0.8415502572325171  0.1856569347836673  0.5321131144861623
  0.1770709131334258  0.2971333302915711  0.6033248083986986
  0.0190211496101332  0.2043495306375384  0.5772030551524645
  0.9000373745691408  0.6932089274231426  0.6337078367136635
  0.7668225541166853  0.8813122759452137  0.2725714828711337
  0.7713743894345894  0.7900800747659832  0.5835982225697083
  0.5096931939812330  0.1314997709313896  0.6229742988616966
  0.8473626943782521  0.6631076332943614  0.5114837004850523
  0.3043066119010322  0.8376790914172338  0.5875437007353347
  0.3960328805331791  0.0369217383382673  0.6754624940362479
  0.3836810888015476  0.1826083509642301  0.4153675029270118
  0.6161011942217571  0.1079404695188171  0.4561353308137485
  0.1558418726703766  0.5431250248006987  0.5086704160372617
  0.5198736874204714  0.4472462636341143  0.4317731662188159
  0.1252978017860692  0.3731525228957431  0.3076291778159032
  0.5484423934796308  0.8978753040803596  0.3730615298120588
  0.8311339843971930  0.5391400574686477  0.3576867255215331
  0.5994944380665768  0.5674887996743916  0.5835727937638706
  0.0055881783541249  0.6431872157668272  0.3334934340525659
  0.7055788946453111  0.4190461550206591  0.5659290829833606
  0.2363621534524913  0.7420489446030882  0.3627475257243628
  0.8879880684731694  0.4781850137397995  0.5310212384768720
  0.8616686765392690  0.0605261534397835  0.4581638183077159
  0.3272216338426294  0.0308695460825601  0.6004807775207308
  0.6854772429524938  0.4120235373840955  0.3202827592021772
  0.7566624543620447  0.1657011817111387  0.3739083200606776
  0.5293509524837977  0.0791341564245049  0.3618274272283571
  0.0067657053876393  0.8191352783948459  0.5958164463564292
  0.3908671454386940  0.2897293048302089  0.6549447110780376
  0.3984896688562147  0.9585554462153471  0.4255788399419658
  0.6169341626637186  0.5652330757741951  0.3820795672505176
  0.6391422721268966  0.1488882466368831  0.2582436714998560
  0.6909824667919128  0.7509842708831703  0.4262270674882878
  0.8216646607254199  0.8826845426984151  0.3597773757698823
  0.9478801025343164  0.4324447695175275  0.4389641368192898
  0.8500283333012768  0.9080016397561932  0.6396132146274240
  0.5990608899058149  0.5078916987221590  0.5051085647393171
  0.0505032577434535  0.5305542328226341  0.6265852937949349
  0.4449102344753449  0.6341222810057161  0.6617417287305826
  0.6174948350547637  0.6545393956515652  0.2561594040294354
  0.5574141428931489  0.4636645048463009  0.6453039472803679
  0.5835059038124886  0.7466106404320838  0.3367360623539434
  0.7575283765074460  0.7157890561698550  0.3386295971300157
  0.6988172067910404  0.3641882508249202  0.4015601870743276
  0.7519646905434012  0.4005435480001837  0.4947799086336397
  0.2980262840987997  0.3610284498202427  0.4376213259047781
  0.7875308479331156  0.6900057016785277  0.7089497042553392
  0.5337035566409206  0.8723642028729197  0.6962983711845260
  0.8252318653842413  0.0630856701427428  0.2904282096004945
  0.1680340789469856  0.1454420579799149  0.3929097733954448
  0.2131798592074358  0.1325856444703502  0.6565335404720628
  0.5866320988910476  0.8449365478662281  0.5474366756638036
  0.1563055043776602  0.3309592283950623  0.3871728988602783
  0.0865926998708178  0.1819042152579947  0.4917894304913512
  0.2567901598386633  0.4550375627025151  0.5605481016203432
  0.9936253376495029  0.2604169997081801  0.6627831787251245
  0.0550309396747129  0.7751997309273831  0.3782552279118077
  0.9130692851938280  0.0501143521690796  0.3578181922267472
  0.6606825142970603  0.0162960902400107  0.6282049198788112
  0.4275768907528550  0.5926925456694270  0.5325884800534137
  0.8317563076254791  0.4569333568594974  0.6428856654291425
  0.1540156169603415  0.6150850120420047  0.4202938441668540
  0.3902116761497870  0.8278659497847459  0.5126488686675823
  0.1801794476910675  0.6037210200451683  0.6949294538735346
  0.3372810456238413  0.7834844885803735  0.6700198320285602
  0.1599005683214326  0.6617651020792065  0.2926188485445079
  0.1627869942953383  0.0997958542149638  0.3107788427914321
  0.6847271243177824  0.2946288980195668  0.6426285617281138
  0.1555344441546714  0.9114657592578106  0.6284280988470440
  0.2527859880958826  0.2921724192197088  0.5150368700088576
  0.1446435420210492  0.4201417267811891  0.7147839799639737
  0.8385600975179381  0.2919322345174297  0.7074779783365192
  0.2489165824063413  0.9256412161709909  0.7026395421429653
  0.9630142041036938  0.6090035210231103  0.7117125061941885
  0.7022927459268300  0.5283986753751528  0.6929285877331095
  0.0020815608143547  0.2780263937913214  0.6915552868967731
  0.3179710139186273  0.8027997573317852  0.6980143883562907
  0.8542787891632229  0.6679950570719860  0.7170293126848148
  0.1600849826210612  0.4884240263667847  0.7107492838947692
  0.7492507894461202  0.6265092173442529  0.7065219909721697
 
  0.00000000E+00  0.00000000E+00  0.00000000E+00
  0.00000000E+00  0.00000000E+00  0.00000000E+00
  0.00000000E+00  0.00000000E+00  0.00000000E+00
  0.00000000E+00  0.00000000E+00  0.00000000E+00
  0.00000000E+00  0.00000000E+00  0.00000000E+00
  0.00000000E+00  0.00000000E+00  0.00000000E+00
  0.00000000E+00  0.00000000E+00  0.00000000E+00
  0.00000000E+00  0.00000000E+00  0.00000000E+00
  0.00000000E+00  0.00000000E+00  0.00000000E+00
  0.00000000E+00  0.00000000E+00  0.00000000E+00
  0.00000000E+00  0.00000000E+00  0.00000000E+00
  0.00000000E+00  0.00000000E+00  0.00000000E+00
  0.00000000E+00  0.00000000E+00  0.00000000E+00
  0.00000000E+00  0.00000000E+00  0.00000000E+00
  0.00000000E+00  0.00000000E+00  0.00000000E+00
  0.00000000E+00  0.00000000E+00  0.00000000E+00
  0.00000000E+00  0.00000000E+00  0.00000000E+00
  0.00000000E+00  0.00000000E+00  0.00000000E+00
  0.00000000E+00  0.00000000E+00  0.00000000E+00
  0.00000000E+00  0.00000000E+00  0.00000000E+00
  0.00000000E+00  0.00000000E+00  0.00000000E+00
  0.00000000E+00  0.00000000E+00  0.00000000E+00
  0.00000000E+00  0.00000000E+00  0.00000000E+00
  0.00000000E+00  0.00000000E+00  0.00000000E+00
  0.00000000E+00  0.00000000E+00  0.00000000E+00
  0.00000000E+00  0.00000000E+00  0.00000000E+00
  0.00000000E+00  0.00000000E+00  0.00000000E+00
  0.00000000E+00  0.00000000E+00  0.00000000E+00
  0.00000000E+00  0.00000000E+00  0.00000000E+00
  0.00000000E+00  0.00000000E+00  0.00000000E+00
  0.00000000E+00  0.00000000E+00  0.00000000E+00
  0.00000000E+00  0.00000000E+00  0.00000000E+00
  0.00000000E+00  0.00000000E+00  0.00000000E+00
  0.00000000E+00  0.00000000E+00  0.00000000E+00
  0.00000000E+00  0.00000000E+00  0.00000000E+00
  0.00000000E+00  0.00000000E+00  0.00000000E+00
  0.00000000E+00  0.00000000E+00  0.00000000E+00
  0.00000000E+00  0.00000000E+00  0.00000000E+00
  0.00000000E+00  0.00000000E+00  0.00000000E+00
  0.00000000E+00  0.00000000E+00  0.00000000E+00
  0.00000000E+00  0.00000000E+00  0.00000000E+00
  0.00000000E+00  0.00000000E+00  0.00000000E+00
  0.00000000E+00  0.00000000E+00  0.00000000E+00
  0.00000000E+00  0.00000000E+00  0.00000000E+00
  0.00000000E+00  0.00000000E+00  0.00000000E+00
  0.00000000E+00  0.00000000E+00  0.00000000E+00
  0.00000000E+00  0.00000000E+00  0.00000000E+00
  0.00000000E+00  0.00000000E+00  0.00000000E+00
  0.00000000E+00  0.00000000E+00  0.00000000E+00
  0.00000000E+00  0.00000000E+00  0.00000000E+00
  0.00000000E+00  0.00000000E+00  0.00000000E+00
  0.00000000E+00  0.00000000E+00  0.00000000E+00
  0.00000000E+00  0.00000000E+00  0.00000000E+00
  0.00000000E+00  0.00000000E+00  0.00000000E+00
  0.00000000E+00  0.00000000E+00  0.00000000E+00
  0.00000000E+00  0.00000000E+00  0.00000000E+00
  0.00000000E+00  0.00000000E+00  0.00000000E+00
  0.00000000E+00  0.00000000E+00  0.00000000E+00
  0.00000000E+00  0.00000000E+00  0.00000000E+00
  0.00000000E+00  0.00000000E+00  0.00000000E+00
  0.00000000E+00  0.00000000E+00  0.00000000E+00
  0.00000000E+00  0.00000000E+00  0.00000000E+00
  0.00000000E+00  0.00000000E+00  0.00000000E+00
  0.00000000E+00  0.00000000E+00  0.00000000E+00
  0.00000000E+00  0.00000000E+00  0.00000000E+00
  0.00000000E+00  0.00000000E+00  0.00000000E+00
  0.00000000E+00  0.00000000E+00  0.00000000E+00
  0.00000000E+00  0.00000000E+00  0.00000000E+00
  0.00000000E+00  0.00000000E+00  0.00000000E+00
  0.00000000E+00  0.00000000E+00  0.00000000E+00
  0.00000000E+00  0.00000000E+00  0.00000000E+00
  0.00000000E+00  0.00000000E+00  0.00000000E+00
  0.00000000E+00  0.00000000E+00  0.00000000E+00
  0.00000000E+00  0.00000000E+00  0.00000000E+00
  0.00000000E+00  0.00000000E+00  0.00000000E+00
  0.00000000E+00  0.00000000E+00  0.00000000E+00
  0.00000000E+00  0.00000000E+00  0.00000000E+00
  0.00000000E+00  0.00000000E+00  0.00000000E+00
  0.00000000E+00  0.00000000E+00  0.00000000E+00
  0.00000000E+00  0.00000000E+00  0.00000000E+00
  0.00000000E+00  0.00000000E+00  0.00000000E+00
  0.00000000E+00  0.00000000E+00  0.00000000E+00
  0.00000000E+00  0.00000000E+00  0.00000000E+00
  0.00000000E+00  0.00000000E+00  0.00000000E+00
  0.00000000E+00  0.00000000E+00  0.00000000E+00
  0.00000000E+00  0.00000000E+00  0.00000000E+00
  0.00000000E+00  0.00000000E+00  0.00000000E+00
  0.00000000E+00  0.00000000E+00  0.00000000E+00
  0.00000000E+00  0.00000000E+00  0.00000000E+00
  0.00000000E+00  0.00000000E+00  0.00000000E+00
  0.00000000E+00  0.00000000E+00  0.00000000E+00
  0.00000000E+00  0.00000000E+00  0.00000000E+00
  0.00000000E+00  0.00000000E+00  0.00000000E+00
  0.00000000E+00  0.00000000E+00  0.00000000E+00
  0.00000000E+00  0.00000000E+00  0.00000000E+00
  0.00000000E+00  0.00000000E+00  0.00000000E+00
  0.00000000E+00  0.00000000E+00  0.00000000E+00
  0.00000000E+00  0.00000000E+00  0.00000000E+00
  0.00000000E+00  0.00000000E+00  0.00000000E+00
  0.00000000E+00  0.00000000E+00  0.00000000E+00
  0.00000000E+00  0.00000000E+00  0.00000000E+00
  0.00000000E+00  0.00000000E+00  0.00000000E+00
  0.00000000E+00  0.00000000E+00  0.00000000E+00
  0.00000000E+00  0.00000000E+00  0.00000000E+00
  0.00000000E+00  0.00000000E+00  0.00000000E+00
  0.00000000E+00  0.00000000E+00  0.00000000E+00
  0.00000000E+00  0.00000000E+00  0.00000000E+00
  0.00000000E+00  0.00000000E+00  0.00000000E+00
  0.00000000E+00  0.00000000E+00  0.00000000E+00
  0.00000000E+00  0.00000000E+00  0.00000000E+00
  0.00000000E+00  0.00000000E+00  0.00000000E+00
  0.00000000E+00  0.00000000E+00  0.00000000E+00
  0.00000000E+00  0.00000000E+00  0.00000000E+00
  0.00000000E+00  0.00000000E+00  0.00000000E+00
  0.00000000E+00  0.00000000E+00  0.00000000E+00
  0.00000000E+00  0.00000000E+00  0.00000000E+00
  0.00000000E+00  0.00000000E+00  0.00000000E+00
  0.00000000E+00  0.00000000E+00  0.00000000E+00
  0.00000000E+00  0.00000000E+00  0.00000000E+00
  0.00000000E+00  0.00000000E+00  0.00000000E+00
  0.00000000E+00  0.00000000E+00  0.00000000E+00
  0.00000000E+00  0.00000000E+00  0.00000000E+00
  0.00000000E+00  0.00000000E+00  0.00000000E+00
  0.00000000E+00  0.00000000E+00  0.00000000E+00
  0.00000000E+00  0.00000000E+00  0.00000000E+00
  0.00000000E+00  0.00000000E+00  0.00000000E+00
  0.00000000E+00  0.00000000E+00  0.00000000E+00
  0.00000000E+00  0.00000000E+00  0.00000000E+00
  0.00000000E+00  0.00000000E+00  0.00000000E+00
  0.00000000E+00  0.00000000E+00  0.00000000E+00
  0.00000000E+00  0.00000000E+00  0.00000000E+00
  0.00000000E+00  0.00000000E+00  0.00000000E+00
  0.00000000E+00  0.00000000E+00  0.00000000E+00
  0.00000000E+00  0.00000000E+00  0.00000000E+00
  0.00000000E+00  0.00000000E+00  0.00000000E+00
  0.00000000E+00  0.00000000E+00  0.00000000E+00
  0.00000000E+00  0.00000000E+00  0.00000000E+00
  0.00000000E+00  0.00000000E+00  0.00000000E+00
  0.00000000E+00  0.00000000E+00  0.00000000E+00
  0.00000000E+00  0.00000000E+00  0.00000000E+00
  0.00000000E+00  0.00000000E+00  0.00000000E+00
  0.00000000E+00  0.00000000E+00  0.00000000E+00
  0.00000000E+00  0.00000000E+00  0.00000000E+00
  0.00000000E+00  0.00000000E+00  0.00000000E+00
  0.00000000E+00  0.00000000E+00  0.00000000E+00
  0.00000000E+00  0.00000000E+00  0.00000000E+00
  0.00000000E+00  0.00000000E+00  0.00000000E+00
  0.00000000E+00  0.00000000E+00  0.00000000E+00
  0.00000000E+00  0.00000000E+00  0.00000000E+00
  0.00000000E+00  0.00000000E+00  0.00000000E+00
  0.00000000E+00  0.00000000E+00  0.00000000E+00
  0.00000000E+00  0.00000000E+00  0.00000000E+00
  0.00000000E+00  0.00000000E+00  0.00000000E+00
  0.00000000E+00  0.00000000E+00  0.00000000E+00
  0.00000000E+00  0.00000000E+00  0.00000000E+00
  0.00000000E+00  0.00000000E+00  0.00000000E+00
  0.00000000E+00  0.00000000E+00  0.00000000E+00
  0.00000000E+00  0.00000000E+00  0.00000000E+00
  0.00000000E+00  0.00000000E+00  0.00000000E+00
  0.00000000E+00  0.00000000E+00  0.00000000E+00
  0.00000000E+00  0.00000000E+00  0.00000000E+00
  0.00000000E+00  0.00000000E+00  0.00000000E+00
  0.00000000E+00  0.00000000E+00  0.00000000E+00
  0.00000000E+00  0.00000000E+00  0.00000000E+00
  0.00000000E+00  0.00000000E+00  0.00000000E+00
  0.00000000E+00  0.00000000E+00  0.00000000E+00
  0.00000000E+00  0.00000000E+00  0.00000000E+00
  0.00000000E+00  0.00000000E+00  0.00000000E+00
  0.00000000E+00  0.00000000E+00  0.00000000E+00
  0.00000000E+00  0.00000000E+00  0.00000000E+00
  0.00000000E+00  0.00000000E+00  0.00000000E+00
  0.00000000E+00  0.00000000E+00  0.00000000E+00
  0.00000000E+00  0.00000000E+00  0.00000000E+00
  0.00000000E+00  0.00000000E+00  0.00000000E+00
  0.00000000E+00  0.00000000E+00  0.00000000E+00
  0.00000000E+00  0.00000000E+00  0.00000000E+00
  0.00000000E+00  0.00000000E+00  0.00000000E+00
  0.00000000E+00  0.00000000E+00  0.00000000E+00
  0.00000000E+00  0.00000000E+00  0.00000000E+00
  0.00000000E+00  0.00000000E+00  0.00000000E+00
  0.00000000E+00  0.00000000E+00  0.00000000E+00
  0.00000000E+00  0.00000000E+00  0.00000000E+00
  0.00000000E+00  0.00000000E+00  0.00000000E+00
  0.00000000E+00  0.00000000E+00  0.00000000E+00
  0.00000000E+00  0.00000000E+00  0.00000000E+00
  0.00000000E+00  0.00000000E+00  0.00000000E+00
  0.00000000E+00  0.00000000E+00  0.00000000E+00
  0.00000000E+00  0.00000000E+00  0.00000000E+00
  0.00000000E+00  0.00000000E+00  0.00000000E+00
  0.00000000E+00  0.00000000E+00  0.00000000E+00
  0.00000000E+00  0.00000000E+00  0.00000000E+00
  0.00000000E+00  0.00000000E+00  0.00000000E+00
  0.00000000E+00  0.00000000E+00  0.00000000E+00
  0.00000000E+00  0.00000000E+00  0.00000000E+00
  0.00000000E+00  0.00000000E+00  0.00000000E+00
  0.00000000E+00  0.00000000E+00  0.00000000E+00
  0.00000000E+00  0.00000000E+00  0.00000000E+00
  0.00000000E+00  0.00000000E+00  0.00000000E+00
  0.00000000E+00  0.00000000E+00  0.00000000E+00
  0.00000000E+00  0.00000000E+00  0.00000000E+00
  0.00000000E+00  0.00000000E+00  0.00000000E+00
  0.00000000E+00  0.00000000E+00  0.00000000E+00
  0.00000000E+00  0.00000000E+00  0.00000000E+00
  0.00000000E+00  0.00000000E+00  0.00000000E+00
  0.00000000E+00  0.00000000E+00  0.00000000E+00
  0.00000000E+00  0.00000000E+00  0.00000000E+00
  0.00000000E+00  0.00000000E+00  0.00000000E+00
  0.00000000E+00  0.00000000E+00  0.00000000E+00
  0.00000000E+00  0.00000000E+00  0.00000000E+00
  0.00000000E+00  0.00000000E+00  0.00000000E+00
  0.00000000E+00  0.00000000E+00  0.00000000E+00
  0.00000000E+00  0.00000000E+00  0.00000000E+00
  0.00000000E+00  0.00000000E+00  0.00000000E+00
  0.00000000E+00  0.00000000E+00  0.00000000E+00
  0.00000000E+00  0.00000000E+00  0.00000000E+00
  0.00000000E+00  0.00000000E+00  0.00000000E+00
  0.00000000E+00  0.00000000E+00  0.00000000E+00
  0.00000000E+00  0.00000000E+00  0.00000000E+00
  0.00000000E+00  0.00000000E+00  0.00000000E+00
  0.00000000E+00  0.00000000E+00  0.00000000E+00
  0.00000000E+00  0.00000000E+00  0.00000000E+00
  0.00000000E+00  0.00000000E+00  0.00000000E+00
  0.00000000E+00  0.00000000E+00  0.00000000E+00
  0.00000000E+00  0.00000000E+00  0.00000000E+00
  0.00000000E+00  0.00000000E+00  0.00000000E+00
  0.00000000E+00  0.00000000E+00  0.00000000E+00
