Hf  O  F  H                             
   1.00000000000000     
    13.7225301000000002    0.0000000000000000    0.0000000000000000
     0.0000000000000000   13.7225301000000002    0.0000000000000000
     0.0000000000000000    0.0000000000000000   32.7225301000000002
   Hf   O    F    H 
    72   144     3     3
Direct
  0.1309571869128533  0.8711213118642944  0.4170963181445043
  0.8683874033955030  0.9478288777301523  0.5045587238279060
  0.0187757420369207  0.6249038366467689  0.3954371657854824
  0.8720721520453267  0.6438747132756428  0.3038787709685287
  0.0734792232087356  0.7894883875104887  0.3169558484809207
  0.4096356385443574  0.9473529343679874  0.5532549367395716
  0.6277215941104022  0.5177620182593469  0.2777766065289254
  0.6792980900134800  0.7535364150554230  0.2790201835017831
  0.0412006146679524  0.6521947361120758  0.6669193660964601
  0.2806196851965798  0.0590648026393765  0.4150198929648506
  0.9248446529754989  0.7409654344467330  0.4686807742554169
  0.2852723623332002  0.7639908878434264  0.2965079076043339
  0.0997520709131459  0.5310818979760694  0.3101081798324940
  0.3416212706413102  0.1693897755887310  0.5268513323107380
  0.5429777639635401  0.9711384063991179  0.6659046675870461
  0.2717672618628087  0.6395631596585930  0.6530585831380405
  0.5557741965316910  0.3668217813102388  0.5434109562503719
  0.4657249756579079  0.9913495629027501  0.3242904008345686
  0.2817952785346492  0.6605260678228270  0.3881840641980149
  0.8946738828303172  0.7188173991935981  0.5689303882432760
  0.8346643968164876  0.4320608743148520  0.3149405542209761
  0.9167554131432522  0.0984802566604733  0.5758813346951280
  0.0102349431791098  0.3547997604107479  0.3903022978880217
  0.9134125823065959  0.4971099962012821  0.5966795656727287
  0.1364780513909843  0.5395939057420733  0.5830529647896844
  0.1827907736403312  0.2533083400909942  0.4460632449288055
  0.1099124967627703  0.2919367794215481  0.5429390420831902
  0.7472114463279028  0.5549742506144117  0.5148214289293266
  0.3592552284819436  0.1524545593275894  0.6426612218678019
  0.6643722454693469  0.1532810325678751  0.6151340708995402
  0.4693968569116464  0.3294593492680090  0.6988332451060166
  0.2615534807323246  0.4561629777453833  0.4945866195505468
  0.3040925151833707  0.3625377980423520  0.6049331671706163
  0.8555482436340938  0.9818929405865692  0.4087208610000532
  0.1577660721493860  0.0470146347440017  0.5092681908710751
  0.7925185112867926  0.7028991455414714  0.6743513775500464
  0.4900326387749622  0.6472030825676864  0.3481544842337969
  0.0089804414319326  0.4740428942941829  0.4997505820779000
  0.8797910490270751  0.9244143568425818  0.3032252429780368
  0.4147036512903391  0.8202750506561097  0.4432193512048080
  0.4249090981902301  0.3356785575170679  0.4493005385708234
  0.6061442408058797  0.8043124306045335  0.5015161178846230
  0.3408704791571981  0.7097843949492550  0.5358587149864988
  0.1432891249188681  0.8243110410159873  0.5780501980222207
  0.6778059728137369  0.2308114613482677  0.4328120980980171
  0.5584766080443405  0.0048532444651978  0.4170048986553685
  0.3074461343521154  0.9086057915456929  0.6375527765674376
  0.4975379030669383  0.5590267414746937  0.4811946963010524
  0.5917108840293736  0.1496936498086254  0.5191427110493987
  0.0628350802314818  0.0612534009556917  0.3632954330830077
  0.8070532465062948  0.4167494248524025  0.4322198031913337
  0.7001027585236005  0.9250968939186965  0.5750106737675309
  0.4944580344644698  0.7551722710222675  0.6575866689284281
  0.6785394645247994  0.8465122081469171  0.3672810872516640
  0.2550266534883830  0.0000547500675871  0.3101074881649297
  0.4489776405277306  0.5655683307999959  0.5977988628919335
  0.6494288105154211  0.2873294136875661  0.2901757478094829
  0.6614149493706305  0.6698235578027353  0.5977531772547241
  0.9961432028328062  0.8972416772825338  0.6480564637503908
  0.7456255088571428  0.6349889226368519  0.3936560610890322
  0.2936722098271574  0.4253697248939042  0.3710187523627560
  0.6917756936891235  0.0434939970061870  0.2681388503128734
  0.5668281329604064  0.4281707849032251  0.3738655259123697
  0.4308590214123688  0.2189540886670023  0.3650863398330140
  0.6775914885091182  0.4460244932939819  0.6340328404455807
  0.1584640185967772  0.6734503257387360  0.4765028670111416
  0.8478886981791750  0.2904259985940959  0.6466940249945599
  0.8497558994940412  0.1971600046584158  0.3420597532243286
  0.1018365615326110  0.1720468123982219  0.6279115791452909
  0.8125347102612857  0.3296163620803997  0.5350351587828859
  0.9394909392666820  0.1878041768783860  0.4792108600835198
  0.1617937839869598  0.2608222161386028  0.3284912047605680
  0.3048867005709887  0.2908373124964591  0.3350471147514913
  0.9325506376797507  0.8236233853007436  0.5220748663326108
  0.3598187990542158  0.8842721520554399  0.3195497437971149
  0.5489199954177802  0.8883464715959347  0.4559680943040550
  0.0484026885959320  0.4288699984581517  0.5604812182966951
  0.0407795892799210  0.4934555849850796  0.3669849725993955
  0.0120841501868708  0.0469560252954315  0.6224509357887033
  0.3040828080104071  0.6136015764378432  0.4846938504470394
  0.1864583273808950  0.9732983497086416  0.4542941065265330
  0.0131102123343147  0.2342754083461266  0.3453386712581580
  0.3697716122506869  0.0484150707403991  0.2818765202816496
  0.1239242561079112  0.9346509708972239  0.5439549690222835
  0.4706889691192361  0.8870366589621775  0.6256318793024720
  0.7018061252974843  0.9689411052930227  0.4047167291174336
  0.3003243308862826  0.0168913549223448  0.5259891238096192
  0.4229152843797321  0.3942975445792708  0.7411639863643475
  0.0474021494095144  0.7912881099560465  0.6809922748310152
  0.7541147986000507  0.5586246025581234  0.4451209217383630
  0.8866714114054488  0.3442571724649109  0.5891010130689642
  0.3594587135547466  0.2236650113890164  0.5857848128465125
  0.8402861789891906  0.9732955397382141  0.5663109490006903
  0.2588935240851408  0.7746161253431104  0.4361738735866563
  0.0200231934176001  0.9414658419299095  0.3222961908474353
  0.7263209764978168  0.8917699797854892  0.5101189395447879
  0.3850124657222926  0.5555210166011937  0.3789014498908022
  0.9373393798430645  0.7850888542397999  0.2885180613088255
  0.8230940062660915  0.2683314873588144  0.4484521458371350
  0.0687429273316564  0.7896981629980689  0.4623652031777694
  0.1466671873103777  0.6768621733222389  0.6162345250372572
  0.8699288237636490  0.3490670575017203  0.3677126191752749
  0.5060267186173109  0.7064151386919539  0.4667240400279672
  0.7880114498883536  0.5896326934246565  0.5756140185235643
  0.2009982796001141  0.1627789254807945  0.5491209737735021
  0.5444111490174928  0.2880643048842194  0.3316532313068989
  0.9525496965333334  0.5054798633417156  0.2899959072465538
  0.6500336787679859  0.6767069099621511  0.5275055224714509
  0.5320620015603306  0.2567370175820577  0.4177041721749298
  0.9991003252311575  0.6120247479762336  0.5608918060128175
  0.9614654858383791  0.3204247372479160  0.5090113747514409
  0.4753530756149325  0.2601860302709957  0.5057039177076613
  0.4117338359178744  0.4419099959923700  0.4975198177284371
  0.8888177595572748  0.6841057672215729  0.4114813136237775
  0.4173727055282117  0.7358930824034622  0.3915933945710325
  0.5872040102942082  0.1274617464094378  0.6736962180718020
  0.7749017901433636  0.5441909587116668  0.2780792250410701
  0.8693758327701293  0.8712268250913126  0.4488931475551355
  0.5859903709440645  0.2349757860575472  0.5733398045498210
  0.6637067880427500  0.2702022109367807  0.4983299631394158
  0.8178214518207886  0.1534100951146521  0.6169306632160302
  0.1839169154151663  0.8759361745367887  0.2854279386625093
  0.3402646664654085  0.0819493249480758  0.3565129204931977
  0.7161960586336339  0.5899894187555543  0.6501863895225203
  0.3164220259263829  0.6440751494731108  0.5890167443790391
  0.5194827022431389  0.5142083211103283  0.3183931563113254
  0.8799543181692725  0.9243621452149197  0.6850060375159593
  0.1936329741492721  0.7364099838976441  0.5308667400158121
  0.4672505381309434  0.0761453971361566  0.5309896084533514
  0.1282017711192833  0.3793923924840433  0.4822506264290751
  0.1921987514402606  0.9649072863058288  0.3715374634923959
  0.6472514309014160  0.7530289200897778  0.6507542015832065
  0.6712841211444045  0.0720325259380702  0.5592908338742398
  0.2218455577955553  0.5439120739380707  0.3462804310944360
  0.3955242243137563  0.6758903296356126  0.3037393338164139
  0.4412140026943719  0.4159453037263633  0.5820613474143556
  0.0163297373872921  0.9663107987897989  0.4089126786948165
  0.9790540680936651  0.0529044607056707  0.5171826851945499
  0.2562838846929599  0.4972046488641510  0.6260360815375656
  0.5744871799273590  0.9749204751332911  0.2860748572340987
  0.8020533848184969  0.2893055217360905  0.2952395449350196
  0.0145044615372893  0.6133536649131109  0.4658253276218767
  0.0205066696757470  0.2512048854043200  0.4310921772420702
  0.5147333423171221  0.7051903143151238  0.5987551118715045
  0.4277439941269968  0.3711396522004573  0.3797074310977283
  0.2612539494414124  0.1313350978505565  0.4701179362205838
  0.8447485140607943  0.1843736675970343  0.5315217249174706
  0.1690150891468570  0.2944747611088416  0.6055557366052110
  0.0229592904850642  0.2021321710908983  0.5755522094308906
  0.9027673127149560  0.6610179044547956  0.6297213630211572
  0.7509296231709011  0.8874226974834299  0.2715635369725138
  0.7590121386390621  0.7859000861982917  0.5841331647482911
  0.5179454630736450  0.1208454987672201  0.6378500836025223
  0.8419299848813172  0.6691352449621898  0.5078521525060313
  0.3072495189012699  0.8447469241652663  0.5800740764777597
  0.3840122642847086  0.0063807093821440  0.6810790726761998
  0.3423941749419289  0.2203705464581817  0.4161890377143556
  0.6154250413595511  0.1045631078193432  0.4585078252653925
  0.1441558184855293  0.5494746757039733  0.5137596831565509
  0.5151580698938522  0.4578731951473647  0.4344656882405257
  0.1338717508824158  0.3869530082404808  0.3008207021773468
  0.5436198522381813  0.9078043439441157  0.3691921422569401
  0.8346524079955058  0.5485702418570639  0.3560133448955971
  0.5929812815443758  0.5324265284804420  0.5963238035919152
  0.0100410602008226  0.6499067868420370  0.3318618826385685
  0.6956286544509517  0.3910077566486374  0.5687997346017187
  0.2242853258376568  0.7563538111780632  0.3503923664433612
  0.8800850447880225  0.4789004642604029  0.5329261947048968
  0.8535444522873515  0.0644333827700377  0.4588283918101063
  0.3613522965478682  0.0278751767087565  0.6043695278797178
  0.6837013967258789  0.4231519835379604  0.3234344480611211
  0.7420707756726228  0.1810676929208909  0.3794061652865152
  0.5197991494953815  0.0946009677199118  0.3678447929068855
  0.9988901261382456  0.8159713954982754  0.5957849170775070
  0.3591779493305240  0.3066410952432254  0.6567576270454908
  0.3990354782123887  0.9673938717638401  0.4257628672345207
  0.6120165883566757  0.5763922718314132  0.3794862507269314
  0.6456282261184627  0.1735136203365837  0.2538402504589438
  0.6876903408543820  0.7602291766664314  0.4132341960287322
  0.8233642024135585  0.8961549243327451  0.3560353290128535
  0.9538598199516692  0.4442921787272263  0.4375860127590041
  0.8520995192967434  0.8447036074102683  0.6558453849508543
  0.6019323228698193  0.4902434370473990  0.5111484316287110
  0.0397184955231454  0.5173295981021685  0.6299456895595822
  0.4246893445060857  0.6123466646910463  0.6576024184040453
  0.6177983669461543  0.6479958427391260  0.2485388888461078
  0.5704121626487800  0.4132951065283142  0.6706373084666513
  0.5870739941819255  0.7558036181937047  0.3269310986087077
  0.7622543373250502  0.7209287897281633  0.3336127523267747
  0.6833728278693020  0.3703386847155305  0.4049779818842231
  0.7656728766953423  0.4176485659491149  0.4885986456449953
  0.2900528132785929  0.4159500584485472  0.4328287933009135
  0.9160376190865877  0.6334881918981957  0.7050267989842227
  0.5322839411253609  0.8586422022078660  0.7002687387053455
  0.8262928876603525  0.0672441272672309  0.2956669816659644
  0.1591210249064468  0.1441851968734168  0.3982294018317077
  0.2216592623230068  0.1245073879161816  0.6548250091995251
  0.5620852268231772  0.8836354270705453  0.5499344053882511
  0.1617988856045656  0.3369424653407025  0.3848505670697844
  0.0928195700616825  0.1858350329297910  0.4912403863925302
  0.2343360371275845  0.4176520797612838  0.5530660976283283
  0.0025858238003181  0.2426630862548169  0.6632503268151737
  0.0557265264124995  0.7739173172893407  0.3795570315288799
  0.9155092333325113  0.0810641721324002  0.3683802079197170
  0.6618715416290882  0.9862862497732412  0.6292703298895141
  0.4475467844100495  0.6069729226268276  0.5370584617043744
  0.8281630093418378  0.4389409031325922  0.6465148838808493
  0.1603267583973069  0.6128391674563425  0.4181811772224518
  0.3960514281107597  0.8327525090039680  0.5077526153402854
  0.1676420249263395  0.6175608219339485  0.6928397230564850
  0.3343951868930586  0.7785732906715621  0.6641802581816333
  0.1558672250015771  0.6756347879143965  0.2845960136690625
  0.1525216276669874  0.1127790198352767  0.3128182223110286
  0.7024256985072117  0.2864365645700365  0.6405515994184068
  0.1628641798857887  0.9019317916299556  0.6318060724954995
  0.2906435587712954  0.2968974243942288  0.4921506223216452
  0.7535961451598795  0.7182824557049305  0.7303842909336040
  0.8502141053004730  0.2757201248137705  0.7065483889094136
  0.4198711542873532  0.1811985227903914  0.7039491855473518
  0.9130198578136653  0.6355269290728942  0.7347302806496500
  0.9961727009671576  0.2426083558245834  0.6930140997135553
  0.3692048506907892  0.0141758201441349  0.7100584071782670
 
  0.00000000E+00  0.00000000E+00  0.00000000E+00
  0.00000000E+00  0.00000000E+00  0.00000000E+00
  0.00000000E+00  0.00000000E+00  0.00000000E+00
  0.00000000E+00  0.00000000E+00  0.00000000E+00
  0.00000000E+00  0.00000000E+00  0.00000000E+00
  0.00000000E+00  0.00000000E+00  0.00000000E+00
  0.00000000E+00  0.00000000E+00  0.00000000E+00
  0.00000000E+00  0.00000000E+00  0.00000000E+00
  0.00000000E+00  0.00000000E+00  0.00000000E+00
  0.00000000E+00  0.00000000E+00  0.00000000E+00
  0.00000000E+00  0.00000000E+00  0.00000000E+00
  0.00000000E+00  0.00000000E+00  0.00000000E+00
  0.00000000E+00  0.00000000E+00  0.00000000E+00
  0.00000000E+00  0.00000000E+00  0.00000000E+00
  0.00000000E+00  0.00000000E+00  0.00000000E+00
  0.00000000E+00  0.00000000E+00  0.00000000E+00
  0.00000000E+00  0.00000000E+00  0.00000000E+00
  0.00000000E+00  0.00000000E+00  0.00000000E+00
  0.00000000E+00  0.00000000E+00  0.00000000E+00
  0.00000000E+00  0.00000000E+00  0.00000000E+00
  0.00000000E+00  0.00000000E+00  0.00000000E+00
  0.00000000E+00  0.00000000E+00  0.00000000E+00
  0.00000000E+00  0.00000000E+00  0.00000000E+00
  0.00000000E+00  0.00000000E+00  0.00000000E+00
  0.00000000E+00  0.00000000E+00  0.00000000E+00
  0.00000000E+00  0.00000000E+00  0.00000000E+00
  0.00000000E+00  0.00000000E+00  0.00000000E+00
  0.00000000E+00  0.00000000E+00  0.00000000E+00
  0.00000000E+00  0.00000000E+00  0.00000000E+00
  0.00000000E+00  0.00000000E+00  0.00000000E+00
  0.00000000E+00  0.00000000E+00  0.00000000E+00
  0.00000000E+00  0.00000000E+00  0.00000000E+00
  0.00000000E+00  0.00000000E+00  0.00000000E+00
  0.00000000E+00  0.00000000E+00  0.00000000E+00
  0.00000000E+00  0.00000000E+00  0.00000000E+00
  0.00000000E+00  0.00000000E+00  0.00000000E+00
  0.00000000E+00  0.00000000E+00  0.00000000E+00
  0.00000000E+00  0.00000000E+00  0.00000000E+00
  0.00000000E+00  0.00000000E+00  0.00000000E+00
  0.00000000E+00  0.00000000E+00  0.00000000E+00
  0.00000000E+00  0.00000000E+00  0.00000000E+00
  0.00000000E+00  0.00000000E+00  0.00000000E+00
  0.00000000E+00  0.00000000E+00  0.00000000E+00
  0.00000000E+00  0.00000000E+00  0.00000000E+00
  0.00000000E+00  0.00000000E+00  0.00000000E+00
  0.00000000E+00  0.00000000E+00  0.00000000E+00
  0.00000000E+00  0.00000000E+00  0.00000000E+00
  0.00000000E+00  0.00000000E+00  0.00000000E+00
  0.00000000E+00  0.00000000E+00  0.00000000E+00
  0.00000000E+00  0.00000000E+00  0.00000000E+00
  0.00000000E+00  0.00000000E+00  0.00000000E+00
  0.00000000E+00  0.00000000E+00  0.00000000E+00
  0.00000000E+00  0.00000000E+00  0.00000000E+00
  0.00000000E+00  0.00000000E+00  0.00000000E+00
  0.00000000E+00  0.00000000E+00  0.00000000E+00
  0.00000000E+00  0.00000000E+00  0.00000000E+00
  0.00000000E+00  0.00000000E+00  0.00000000E+00
  0.00000000E+00  0.00000000E+00  0.00000000E+00
  0.00000000E+00  0.00000000E+00  0.00000000E+00
  0.00000000E+00  0.00000000E+00  0.00000000E+00
  0.00000000E+00  0.00000000E+00  0.00000000E+00
  0.00000000E+00  0.00000000E+00  0.00000000E+00
  0.00000000E+00  0.00000000E+00  0.00000000E+00
  0.00000000E+00  0.00000000E+00  0.00000000E+00
  0.00000000E+00  0.00000000E+00  0.00000000E+00
  0.00000000E+00  0.00000000E+00  0.00000000E+00
  0.00000000E+00  0.00000000E+00  0.00000000E+00
  0.00000000E+00  0.00000000E+00  0.00000000E+00
  0.00000000E+00  0.00000000E+00  0.00000000E+00
  0.00000000E+00  0.00000000E+00  0.00000000E+00
  0.00000000E+00  0.00000000E+00  0.00000000E+00
  0.00000000E+00  0.00000000E+00  0.00000000E+00
  0.00000000E+00  0.00000000E+00  0.00000000E+00
  0.00000000E+00  0.00000000E+00  0.00000000E+00
  0.00000000E+00  0.00000000E+00  0.00000000E+00
  0.00000000E+00  0.00000000E+00  0.00000000E+00
  0.00000000E+00  0.00000000E+00  0.00000000E+00
  0.00000000E+00  0.00000000E+00  0.00000000E+00
  0.00000000E+00  0.00000000E+00  0.00000000E+00
  0.00000000E+00  0.00000000E+00  0.00000000E+00
  0.00000000E+00  0.00000000E+00  0.00000000E+00
  0.00000000E+00  0.00000000E+00  0.00000000E+00
  0.00000000E+00  0.00000000E+00  0.00000000E+00
  0.00000000E+00  0.00000000E+00  0.00000000E+00
  0.00000000E+00  0.00000000E+00  0.00000000E+00
  0.00000000E+00  0.00000000E+00  0.00000000E+00
  0.00000000E+00  0.00000000E+00  0.00000000E+00
  0.00000000E+00  0.00000000E+00  0.00000000E+00
  0.00000000E+00  0.00000000E+00  0.00000000E+00
  0.00000000E+00  0.00000000E+00  0.00000000E+00
  0.00000000E+00  0.00000000E+00  0.00000000E+00
  0.00000000E+00  0.00000000E+00  0.00000000E+00
  0.00000000E+00  0.00000000E+00  0.00000000E+00
  0.00000000E+00  0.00000000E+00  0.00000000E+00
  0.00000000E+00  0.00000000E+00  0.00000000E+00
  0.00000000E+00  0.00000000E+00  0.00000000E+00
  0.00000000E+00  0.00000000E+00  0.00000000E+00
  0.00000000E+00  0.00000000E+00  0.00000000E+00
  0.00000000E+00  0.00000000E+00  0.00000000E+00
  0.00000000E+00  0.00000000E+00  0.00000000E+00
  0.00000000E+00  0.00000000E+00  0.00000000E+00
  0.00000000E+00  0.00000000E+00  0.00000000E+00
  0.00000000E+00  0.00000000E+00  0.00000000E+00
  0.00000000E+00  0.00000000E+00  0.00000000E+00
  0.00000000E+00  0.00000000E+00  0.00000000E+00
  0.00000000E+00  0.00000000E+00  0.00000000E+00
  0.00000000E+00  0.00000000E+00  0.00000000E+00
  0.00000000E+00  0.00000000E+00  0.00000000E+00
  0.00000000E+00  0.00000000E+00  0.00000000E+00
  0.00000000E+00  0.00000000E+00  0.00000000E+00
  0.00000000E+00  0.00000000E+00  0.00000000E+00
  0.00000000E+00  0.00000000E+00  0.00000000E+00
  0.00000000E+00  0.00000000E+00  0.00000000E+00
  0.00000000E+00  0.00000000E+00  0.00000000E+00
  0.00000000E+00  0.00000000E+00  0.00000000E+00
  0.00000000E+00  0.00000000E+00  0.00000000E+00
  0.00000000E+00  0.00000000E+00  0.00000000E+00
  0.00000000E+00  0.00000000E+00  0.00000000E+00
  0.00000000E+00  0.00000000E+00  0.00000000E+00
  0.00000000E+00  0.00000000E+00  0.00000000E+00
  0.00000000E+00  0.00000000E+00  0.00000000E+00
  0.00000000E+00  0.00000000E+00  0.00000000E+00
  0.00000000E+00  0.00000000E+00  0.00000000E+00
  0.00000000E+00  0.00000000E+00  0.00000000E+00
  0.00000000E+00  0.00000000E+00  0.00000000E+00
  0.00000000E+00  0.00000000E+00  0.00000000E+00
  0.00000000E+00  0.00000000E+00  0.00000000E+00
  0.00000000E+00  0.00000000E+00  0.00000000E+00
  0.00000000E+00  0.00000000E+00  0.00000000E+00
  0.00000000E+00  0.00000000E+00  0.00000000E+00
  0.00000000E+00  0.00000000E+00  0.00000000E+00
  0.00000000E+00  0.00000000E+00  0.00000000E+00
  0.00000000E+00  0.00000000E+00  0.00000000E+00
  0.00000000E+00  0.00000000E+00  0.00000000E+00
  0.00000000E+00  0.00000000E+00  0.00000000E+00
  0.00000000E+00  0.00000000E+00  0.00000000E+00
  0.00000000E+00  0.00000000E+00  0.00000000E+00
  0.00000000E+00  0.00000000E+00  0.00000000E+00
  0.00000000E+00  0.00000000E+00  0.00000000E+00
  0.00000000E+00  0.00000000E+00  0.00000000E+00
  0.00000000E+00  0.00000000E+00  0.00000000E+00
  0.00000000E+00  0.00000000E+00  0.00000000E+00
  0.00000000E+00  0.00000000E+00  0.00000000E+00
  0.00000000E+00  0.00000000E+00  0.00000000E+00
  0.00000000E+00  0.00000000E+00  0.00000000E+00
  0.00000000E+00  0.00000000E+00  0.00000000E+00
  0.00000000E+00  0.00000000E+00  0.00000000E+00
  0.00000000E+00  0.00000000E+00  0.00000000E+00
  0.00000000E+00  0.00000000E+00  0.00000000E+00
  0.00000000E+00  0.00000000E+00  0.00000000E+00
  0.00000000E+00  0.00000000E+00  0.00000000E+00
  0.00000000E+00  0.00000000E+00  0.00000000E+00
  0.00000000E+00  0.00000000E+00  0.00000000E+00
  0.00000000E+00  0.00000000E+00  0.00000000E+00
  0.00000000E+00  0.00000000E+00  0.00000000E+00
  0.00000000E+00  0.00000000E+00  0.00000000E+00
  0.00000000E+00  0.00000000E+00  0.00000000E+00
  0.00000000E+00  0.00000000E+00  0.00000000E+00
  0.00000000E+00  0.00000000E+00  0.00000000E+00
  0.00000000E+00  0.00000000E+00  0.00000000E+00
  0.00000000E+00  0.00000000E+00  0.00000000E+00
  0.00000000E+00  0.00000000E+00  0.00000000E+00
  0.00000000E+00  0.00000000E+00  0.00000000E+00
  0.00000000E+00  0.00000000E+00  0.00000000E+00
  0.00000000E+00  0.00000000E+00  0.00000000E+00
  0.00000000E+00  0.00000000E+00  0.00000000E+00
  0.00000000E+00  0.00000000E+00  0.00000000E+00
  0.00000000E+00  0.00000000E+00  0.00000000E+00
  0.00000000E+00  0.00000000E+00  0.00000000E+00
  0.00000000E+00  0.00000000E+00  0.00000000E+00
  0.00000000E+00  0.00000000E+00  0.00000000E+00
  0.00000000E+00  0.00000000E+00  0.00000000E+00
  0.00000000E+00  0.00000000E+00  0.00000000E+00
  0.00000000E+00  0.00000000E+00  0.00000000E+00
  0.00000000E+00  0.00000000E+00  0.00000000E+00
  0.00000000E+00  0.00000000E+00  0.00000000E+00
  0.00000000E+00  0.00000000E+00  0.00000000E+00
  0.00000000E+00  0.00000000E+00  0.00000000E+00
  0.00000000E+00  0.00000000E+00  0.00000000E+00
  0.00000000E+00  0.00000000E+00  0.00000000E+00
  0.00000000E+00  0.00000000E+00  0.00000000E+00
  0.00000000E+00  0.00000000E+00  0.00000000E+00
  0.00000000E+00  0.00000000E+00  0.00000000E+00
  0.00000000E+00  0.00000000E+00  0.00000000E+00
  0.00000000E+00  0.00000000E+00  0.00000000E+00
  0.00000000E+00  0.00000000E+00  0.00000000E+00
  0.00000000E+00  0.00000000E+00  0.00000000E+00
  0.00000000E+00  0.00000000E+00  0.00000000E+00
  0.00000000E+00  0.00000000E+00  0.00000000E+00
  0.00000000E+00  0.00000000E+00  0.00000000E+00
  0.00000000E+00  0.00000000E+00  0.00000000E+00
  0.00000000E+00  0.00000000E+00  0.00000000E+00
  0.00000000E+00  0.00000000E+00  0.00000000E+00
  0.00000000E+00  0.00000000E+00  0.00000000E+00
  0.00000000E+00  0.00000000E+00  0.00000000E+00
  0.00000000E+00  0.00000000E+00  0.00000000E+00
  0.00000000E+00  0.00000000E+00  0.00000000E+00
  0.00000000E+00  0.00000000E+00  0.00000000E+00
  0.00000000E+00  0.00000000E+00  0.00000000E+00
  0.00000000E+00  0.00000000E+00  0.00000000E+00
  0.00000000E+00  0.00000000E+00  0.00000000E+00
  0.00000000E+00  0.00000000E+00  0.00000000E+00
  0.00000000E+00  0.00000000E+00  0.00000000E+00
  0.00000000E+00  0.00000000E+00  0.00000000E+00
  0.00000000E+00  0.00000000E+00  0.00000000E+00
  0.00000000E+00  0.00000000E+00  0.00000000E+00
  0.00000000E+00  0.00000000E+00  0.00000000E+00
  0.00000000E+00  0.00000000E+00  0.00000000E+00
  0.00000000E+00  0.00000000E+00  0.00000000E+00
  0.00000000E+00  0.00000000E+00  0.00000000E+00
  0.00000000E+00  0.00000000E+00  0.00000000E+00
  0.00000000E+00  0.00000000E+00  0.00000000E+00
  0.00000000E+00  0.00000000E+00  0.00000000E+00
  0.00000000E+00  0.00000000E+00  0.00000000E+00
  0.00000000E+00  0.00000000E+00  0.00000000E+00
  0.00000000E+00  0.00000000E+00  0.00000000E+00
  0.00000000E+00  0.00000000E+00  0.00000000E+00
  0.00000000E+00  0.00000000E+00  0.00000000E+00
  0.00000000E+00  0.00000000E+00  0.00000000E+00
  0.00000000E+00  0.00000000E+00  0.00000000E+00
  0.00000000E+00  0.00000000E+00  0.00000000E+00
  0.00000000E+00  0.00000000E+00  0.00000000E+00
