Hf  O  F  H                             
   1.00000000000000     
    13.7225301000000002    0.0000000000000000    0.0000000000000000
     0.0000000000000000   13.7225301000000002    0.0000000000000000
     0.0000000000000000    0.0000000000000000   32.7225301000000002
   Hf   O    F    H 
    72   144     4     4
Direct
  0.1314852030860912  0.8696187665268778  0.4185311922282706
  0.8582303904719497  0.9486968822027206  0.5074032100357727
  0.0201656267683390  0.6243241789113098  0.3974255823556828
  0.8727489381297553  0.6426245049443022  0.3047487181291609
  0.0736467752816828  0.7875637552608520  0.3182483714056923
  0.4075499414894861  0.9473084958655884  0.5560523115709883
  0.6286735992139973  0.5165779285186826  0.2778630408798221
  0.6806760412504846  0.7515617162040543  0.2789367671302035
  0.0410468844563439  0.6540062438304175  0.6672433902626880
  0.2809451572411218  0.0577921778992124  0.4149621128043565
  0.9265301870620587  0.7429544602628821  0.4697967553744316
  0.2850392251558694  0.7624787399803195  0.2971691278551591
  0.0992369416815843  0.5303946103502470  0.3114445141939360
  0.3411493378538766  0.1684154639973820  0.5256685364420630
  0.5418070689987030  0.9811322005733293  0.6760570191918808
  0.2724380631295227  0.6338879319969929  0.6541115103886160
  0.5524744614024315  0.3671654441837370  0.5378082494667726
  0.4646927371307566  0.9901920260439016  0.3241825784263608
  0.2832039507617471  0.6588086438050953  0.3889093480269453
  0.8985366866651628  0.7199099753184836  0.5685644722377482
  0.8344312180610811  0.4310438207512120  0.3160468977562564
  0.9096960649223486  0.1033643183628566  0.5773879508655200
  0.0091617253904574  0.3548376850625936  0.3914036171125101
  0.9161970683598242  0.5008761263441813  0.5966695508645914
  0.1401372058428270  0.5366894808109973  0.5842342947112884
  0.1777822611878950  0.2493656518080991  0.4468857073944650
  0.1099254988117516  0.2902599463242864  0.5440409807556861
  0.7456968982147081  0.5564864661356709  0.5149485179378669
  0.3471738290386761  0.1531199556568591  0.6411826392724573
  0.6560638036396946  0.1561286951319124  0.6147985296242214
  0.5262076696913072  0.3200394709991952  0.6760222845954146
  0.2638885695080909  0.4525321743912499  0.4952237936194923
  0.3072304609711951  0.3608098370711830  0.6054530118726804
  0.8541985850836686  0.9802157315413902  0.4103832832295827
  0.1578300454815094  0.0446322116689108  0.5101339697816633
  0.7921475436669134  0.7163382240440798  0.6696324750398533
  0.4907963538789455  0.6464606227233012  0.3478761192741647
  0.0108460233916834  0.4752771832348645  0.5007554828807194
  0.8798667973511253  0.9225825630498272  0.3043152297210238
  0.4156758248251867  0.8179010048247058  0.4433861228303751
  0.4229289638201021  0.3331186373334784  0.4478341539370939
  0.5934324958490723  0.8120662300151202  0.5055711572733362
  0.3497731489780397  0.7053124494436199  0.5405820553706816
  0.1494913179826731  0.8230122116944907  0.5791563075526537
  0.6761437540810785  0.2316917193010951  0.4325605389805128
  0.5582522684695406  0.0047058832517555  0.4167965473238145
  0.3095107665621696  0.9076744072950628  0.6427016949894313
  0.4905100416984350  0.5598041234108783  0.4805122733463311
  0.5893809643573915  0.1484562543220551  0.5193322679166519
  0.0616493844714647  0.0573690453829249  0.3643893453794410
  0.8065739291358174  0.4174310715498384  0.4330598774112164
  0.6961678929593974  0.9269832437230622  0.5826604706166532
  0.4907660528899484  0.7531825510738982  0.6566305889112130
  0.6782820971899812  0.8465412998302141  0.3666081163111095
  0.2536870119136332 -0.0014822519484855  0.3103305068213845
  0.4603097797503716  0.5545831277813799  0.6019040246780993
  0.6503404582074499  0.2865176667575987  0.2902288269182640
  0.6586236779110993  0.6846757596419967  0.5932719310854623
 -0.0005613491491045  0.9001610436167220  0.6468201196338446
  0.7457782730808733  0.6352762484056776  0.3942732528450106
  0.2921193278313162  0.4240983891349154  0.3710373188940699
  0.6929201018908732  0.0437126390749639  0.2688757183778652
  0.5657165827017212  0.4279209571143476  0.3741406197165217
  0.4301345726697418  0.2176431359114325  0.3640245441248423
  0.6800194868291974  0.4662401174948533  0.6251731065429177
  0.1641180463804316  0.6723401457591011  0.4781771499777107
  0.8337894668899909  0.3020118476535190  0.6493208009550161
  0.8502379891489485  0.1958723671714269  0.3428426535094948
  0.0916579941897176  0.1780256584869259  0.6310480681324919
  0.8141562736793611  0.3329287791952926  0.5361367417283266
  0.9356485884747444  0.1871835609293709  0.4804975579797596
  0.1598754282571967  0.2580764802899749  0.3300878217703053
  0.3028761155367204  0.2877856823138237  0.3353983283695636
  0.9294027096617111  0.8272002755892270  0.5230511182395545
  0.3590494498798972  0.8829414418979983  0.3196993636146864
  0.5498223250872276  0.8892837803929675  0.4561698404954301
  0.0491853570666625  0.4283298297300834  0.5616277715193002
  0.0415124989336364  0.4932500942412321  0.3686741080366319
  0.0043677770208012  0.0516754030101648  0.6240574251558911
  0.3111700090226648  0.6086552194064442  0.4853054215958422
  0.1869646865468584  0.9721325483725621  0.4549781305059546
  0.0106760509915736  0.2348895619871537  0.3460532502149034
  0.3677711868511052  0.0463852481240779  0.2816486575692471
  0.1244516632497531  0.9311902523816507  0.5439641833636576
  0.4675428751324393  0.8881290211546682  0.6345114596963009
  0.7011924330366339  0.9695959317074383  0.4043457483174401
  0.3001925149157508  0.0142748208460777  0.5263792955189054
  0.5379808157528740  0.3455613784054461  0.7285123600058783
  0.0470417918152928  0.7928559773426370  0.6803069692741113
  0.7550572593402342  0.5590756320508513  0.4457395980819190
  0.8827008911634655  0.3484113098556630  0.5913174822716086
  0.3546683379317470  0.2231571260360075  0.5834798383648839
  0.8341305308868262  0.9780063057097226  0.5700627077541186
  0.2624234119754710  0.7732993338650263  0.4381183651380421
  0.0199290312940050  0.9396583303051126  0.3236063926288786
  0.7166909425294833  0.8984130621973506  0.5149695793580723
  0.3863220049914539  0.5550750554515214  0.3783924553693926
  0.9380152469750435  0.7838625113089672  0.2894562810429774
  0.8200819004414732  0.2683365997729797  0.4499220436946590
  0.0719400020976218  0.7885466902710375  0.4645815311672051
  0.1497622819998610  0.6752656261230610  0.6168133794847089
  0.8689107953152159  0.3494634290605748  0.3691854389512456
  0.5055098313185085  0.7059397266776460  0.4664996974165309
  0.7872259526860018  0.5905444189233922  0.5758743385318186
  0.1996644244317608  0.1627667386887539  0.5477227048824419
  0.5434971225881237  0.2863006341882030  0.3306326082940551
  0.9531398893789869  0.5041324590919256  0.2912777868556901
  0.6525446442510062  0.6873594101916088  0.5268024788259983
  0.5319529131952784  0.2569676261535789  0.4161035889486489
  0.0024698804745769  0.6111221243635749  0.5606537168365756
  0.9611408765032549  0.3194515521474992  0.5104717921530239
  0.4714407716308449  0.2537784137776254  0.5040036390016668
  0.4155066608325743  0.4340328352131399  0.4982146803966049
  0.8898545644256853  0.6842091188206952  0.4130553084017712
  0.4184381839649335  0.7357947512008867  0.3916580734921821
  0.5661107866126676  0.1576527001804069  0.6688626117138110
  0.7757404036594845  0.5428994556776152  0.2787247307481427
  0.8636975816028849  0.8710707403813336  0.4513355987086934
  0.5820101663291738  0.2379932436045558  0.5728753323653301
  0.6539982780745396  0.2744947638089383  0.4979892142085522
  0.8051140041182554  0.1686440712522268  0.6175639128910178
  0.1826998121510402  0.8737262136153354  0.2861744841437824
  0.3394335155917799  0.0793070996215942  0.3562194774758374
  0.7065478133106290  0.6081007260635122  0.6470797766951479
  0.3199941143998311  0.6288154698405990  0.5906620134490354
  0.5201520917178240  0.5137041765024530  0.3183284092104353
  0.8842075761621505  0.9234348419501321  0.6849821709215125
  0.2031781793497177  0.7342371741676976  0.5322671290524957
  0.4665986923505935  0.0744940833694996  0.5319985202903068
  0.1278917211805763  0.3775988901608375  0.4832292495188100
  0.1916523729273272  0.9628191712896068  0.3724639303986306
  0.6449159079291082  0.7776167300465699  0.6436039275433534
  0.6646883444123249  0.0711457068233873  0.5619273435277451
  0.2218393279275115  0.5442293567858416  0.3474021168147187
  0.3962566093237441  0.6753636619208553  0.3034595138063995
  0.4398709098602208  0.4137798959723772  0.5789734411343928
  0.0154104336713950  0.9628186747836348  0.4104102626917699
  0.9699276227472655  0.0544442701482838  0.5207986409423468
  0.2513986789294792  0.4898254810851995  0.6286698442313199
  0.5742450653156176  0.9768452217211161  0.2861720306508653
  0.8032119848516162  0.2883641529846125  0.2961722646143896
  0.0177354918247234  0.6135563227846779  0.4671171774704391
  0.0169139550023762  0.2502335975421102  0.4320186065584805
  0.5075451019294720  0.7048058576040491  0.5986051753422075
  0.4261775289980612  0.3696753968421222  0.3785847109899411
  0.2591835848680017  0.1295447295457516  0.4700172889302268
  0.8377445867494271  0.1869889486983854  0.5324365191668508
  0.1698843760972889  0.2917487441647620  0.6075229350864612
  0.0200374902955484  0.2040767738521871  0.5769155500303580
  0.9042463894549535  0.6616356937879945  0.6290394659220364
  0.7505912751329467  0.8867969997349497  0.2728799891506337
  0.7679850207044363  0.7892351482975036  0.5843400455413240
  0.5005884689196810  0.1094430604243561  0.6373996525964537
  0.8449144958767075  0.6681890489235640  0.5083495617490389
  0.3122339999789843  0.8400976217534359  0.5827008197891078
  0.3830524804446201 -0.0129479498245738  0.6893578305920417
  0.3434463055626014  0.2164601861684035  0.4156876409031586
  0.6148554666584566  0.1048798029020295  0.4588110536468341
  0.1485117637108961  0.5477426881329133  0.5147272066449491
  0.5113786540177016  0.4569096481459589  0.4336545502008627
  0.1344034969619896  0.3861702888636479  0.3031475002866574
  0.5427032511507091  0.9071904688373900  0.3692214117476551
  0.8343147517586378  0.5481808527166386  0.3568455329022521
  0.6010526147296661  0.5472272952199891  0.5849988197838304
  0.0097986060534800  0.6489341050047692  0.3334287916988011
  0.6935113809319131  0.3940247869442592  0.5671452209942700
  0.2252678037103037  0.7549796626719451  0.3513973196224300
  0.8810729146899761  0.4803425474908791  0.5331990797699124
  0.8503786742570234  0.0636379929540897  0.4604129575103842
  0.3561005928479458  0.0244824597259258  0.6062992849490807
  0.6836582116434601  0.4217515029774970  0.3237681235485041
  0.7411739954428771  0.1818264342487992  0.3797864701996162
  0.5188000327290510  0.0935027914272805  0.3675385744294424
  0.0037807121755200  0.8149025503078934  0.5955803919859545
  0.3805573262632839  0.3026533001207376  0.6534553430015668
  0.3985227057669487  0.9660912682937046  0.4262791533471600
  0.6124793043370740  0.5758804579101945  0.3796586404971263
  0.6487220584955550  0.1733685653755699  0.2534092588239960
  0.6869120198074056  0.7605531734106498  0.4121170063106346
  0.8246865545972534  0.8946483225298621  0.3572877042388071
  0.9536900620101273  0.4442440397635973  0.4389659272901674
  0.8498801198385154  0.8574480590553589  0.6514230992509780
  0.6016026631017467  0.4934226452804000  0.5076354739492499
  0.0402781919573892  0.5185711758657918  0.6308177421836796
  0.4255732379257706  0.6117443434276062  0.6596159226335443
  0.6190161345084566  0.6462980776159797  0.2483101973184329
  0.5465983199134917  0.4524205604506152  0.6480103706876491
  0.5874051735881306  0.7555790605821977  0.3263366266680544
  0.7626971051861771  0.7200901785461932  0.3337711347067596
  0.6828174774683249  0.3717356082445855  0.4056424406762600
  0.7655008998890094  0.4185159935204801  0.4895545454892057
  0.2921052921792994  0.4191490153670945  0.4326898832723839
  0.9085963536874320  0.6471055593677018  0.7040790773261520
  0.5341035291862268  0.8414223027169980  0.7061704053003376
  0.8273903424617954  0.0661858998339838  0.2970524755911628
  0.1576957690886722  0.1427920610907039  0.3983195711785936
  0.2098957124242114  0.1193357773105843  0.6539735892639965
  0.5601728852514974  0.8861049978010934  0.5579611810137820
  0.1610104725612152  0.3349142910111738  0.3865111991581170
  0.0885507078842470  0.1812988218324503  0.4914207012871393
  0.2346654142304165  0.4119987301732208  0.5535398542634153
  0.9886636918705503  0.2513911918688503  0.6646900550160564
  0.0569348830906261  0.7722126245730165  0.3811075831743089
  0.9151903494118564  0.0803640015882648  0.3704313662041266
  0.6555755403252884  0.0018785012721880  0.6349638353590048
  0.4514902385400264  0.6007766800909453  0.5382364215921774
  0.8232085026808778  0.4504994559299678  0.6461348540814918
  0.1626005624392040  0.6129226684271339  0.4196163725760080
  0.4131199313912735  0.8282545515335299  0.5113219869730077
  0.1658445258467439  0.6167431027054502  0.6937425665323547
  0.3320109770182977  0.7724752768712826  0.6650974447343914
  0.1551977056156519  0.6738682524305969  0.2857960301845194
  0.1502012792174804  0.1104503114413853  0.3137686670828754
  0.6818963715349020  0.3040485119395001  0.6460274930901622
  0.1642286502215963  0.9024358241217207  0.6323359443203730
  0.2896602678337347  0.2954779703795630  0.4903771056280526
  0.7394531961987987  0.7391946440615547  0.7237131593481112
  0.8398842738122336  0.2887578572136830  0.7085842608371099
  0.3778337063931821  0.1616611743424904  0.7016257986451950
  0.6002256688493770  0.0126430235554621  0.7276965451449322
  0.9048819019545158  0.6532269945269464  0.7336848687838651
  0.9820079094077101  0.2518504469074687  0.6944696745346121
  0.3648195426056330  0.0412153701514667  0.7079305314986001
  0.5855250251250061  0.8300877726612557  0.7262561959163523
 
  0.00000000E+00  0.00000000E+00  0.00000000E+00
  0.00000000E+00  0.00000000E+00  0.00000000E+00
  0.00000000E+00  0.00000000E+00  0.00000000E+00
  0.00000000E+00  0.00000000E+00  0.00000000E+00
  0.00000000E+00  0.00000000E+00  0.00000000E+00
  0.00000000E+00  0.00000000E+00  0.00000000E+00
  0.00000000E+00  0.00000000E+00  0.00000000E+00
  0.00000000E+00  0.00000000E+00  0.00000000E+00
  0.00000000E+00  0.00000000E+00  0.00000000E+00
  0.00000000E+00  0.00000000E+00  0.00000000E+00
  0.00000000E+00  0.00000000E+00  0.00000000E+00
  0.00000000E+00  0.00000000E+00  0.00000000E+00
  0.00000000E+00  0.00000000E+00  0.00000000E+00
  0.00000000E+00  0.00000000E+00  0.00000000E+00
  0.00000000E+00  0.00000000E+00  0.00000000E+00
  0.00000000E+00  0.00000000E+00  0.00000000E+00
  0.00000000E+00  0.00000000E+00  0.00000000E+00
  0.00000000E+00  0.00000000E+00  0.00000000E+00
  0.00000000E+00  0.00000000E+00  0.00000000E+00
  0.00000000E+00  0.00000000E+00  0.00000000E+00
  0.00000000E+00  0.00000000E+00  0.00000000E+00
  0.00000000E+00  0.00000000E+00  0.00000000E+00
  0.00000000E+00  0.00000000E+00  0.00000000E+00
  0.00000000E+00  0.00000000E+00  0.00000000E+00
  0.00000000E+00  0.00000000E+00  0.00000000E+00
  0.00000000E+00  0.00000000E+00  0.00000000E+00
  0.00000000E+00  0.00000000E+00  0.00000000E+00
  0.00000000E+00  0.00000000E+00  0.00000000E+00
  0.00000000E+00  0.00000000E+00  0.00000000E+00
  0.00000000E+00  0.00000000E+00  0.00000000E+00
  0.00000000E+00  0.00000000E+00  0.00000000E+00
  0.00000000E+00  0.00000000E+00  0.00000000E+00
  0.00000000E+00  0.00000000E+00  0.00000000E+00
  0.00000000E+00  0.00000000E+00  0.00000000E+00
  0.00000000E+00  0.00000000E+00  0.00000000E+00
  0.00000000E+00  0.00000000E+00  0.00000000E+00
  0.00000000E+00  0.00000000E+00  0.00000000E+00
  0.00000000E+00  0.00000000E+00  0.00000000E+00
  0.00000000E+00  0.00000000E+00  0.00000000E+00
  0.00000000E+00  0.00000000E+00  0.00000000E+00
  0.00000000E+00  0.00000000E+00  0.00000000E+00
  0.00000000E+00  0.00000000E+00  0.00000000E+00
  0.00000000E+00  0.00000000E+00  0.00000000E+00
  0.00000000E+00  0.00000000E+00  0.00000000E+00
  0.00000000E+00  0.00000000E+00  0.00000000E+00
  0.00000000E+00  0.00000000E+00  0.00000000E+00
  0.00000000E+00  0.00000000E+00  0.00000000E+00
  0.00000000E+00  0.00000000E+00  0.00000000E+00
  0.00000000E+00  0.00000000E+00  0.00000000E+00
  0.00000000E+00  0.00000000E+00  0.00000000E+00
  0.00000000E+00  0.00000000E+00  0.00000000E+00
  0.00000000E+00  0.00000000E+00  0.00000000E+00
  0.00000000E+00  0.00000000E+00  0.00000000E+00
  0.00000000E+00  0.00000000E+00  0.00000000E+00
  0.00000000E+00  0.00000000E+00  0.00000000E+00
  0.00000000E+00  0.00000000E+00  0.00000000E+00
  0.00000000E+00  0.00000000E+00  0.00000000E+00
  0.00000000E+00  0.00000000E+00  0.00000000E+00
  0.00000000E+00  0.00000000E+00  0.00000000E+00
  0.00000000E+00  0.00000000E+00  0.00000000E+00
  0.00000000E+00  0.00000000E+00  0.00000000E+00
  0.00000000E+00  0.00000000E+00  0.00000000E+00
  0.00000000E+00  0.00000000E+00  0.00000000E+00
  0.00000000E+00  0.00000000E+00  0.00000000E+00
  0.00000000E+00  0.00000000E+00  0.00000000E+00
  0.00000000E+00  0.00000000E+00  0.00000000E+00
  0.00000000E+00  0.00000000E+00  0.00000000E+00
  0.00000000E+00  0.00000000E+00  0.00000000E+00
  0.00000000E+00  0.00000000E+00  0.00000000E+00
  0.00000000E+00  0.00000000E+00  0.00000000E+00
  0.00000000E+00  0.00000000E+00  0.00000000E+00
  0.00000000E+00  0.00000000E+00  0.00000000E+00
  0.00000000E+00  0.00000000E+00  0.00000000E+00
  0.00000000E+00  0.00000000E+00  0.00000000E+00
  0.00000000E+00  0.00000000E+00  0.00000000E+00
  0.00000000E+00  0.00000000E+00  0.00000000E+00
  0.00000000E+00  0.00000000E+00  0.00000000E+00
  0.00000000E+00  0.00000000E+00  0.00000000E+00
  0.00000000E+00  0.00000000E+00  0.00000000E+00
  0.00000000E+00  0.00000000E+00  0.00000000E+00
  0.00000000E+00  0.00000000E+00  0.00000000E+00
  0.00000000E+00  0.00000000E+00  0.00000000E+00
  0.00000000E+00  0.00000000E+00  0.00000000E+00
  0.00000000E+00  0.00000000E+00  0.00000000E+00
  0.00000000E+00  0.00000000E+00  0.00000000E+00
  0.00000000E+00  0.00000000E+00  0.00000000E+00
  0.00000000E+00  0.00000000E+00  0.00000000E+00
  0.00000000E+00  0.00000000E+00  0.00000000E+00
  0.00000000E+00  0.00000000E+00  0.00000000E+00
  0.00000000E+00  0.00000000E+00  0.00000000E+00
  0.00000000E+00  0.00000000E+00  0.00000000E+00
  0.00000000E+00  0.00000000E+00  0.00000000E+00
  0.00000000E+00  0.00000000E+00  0.00000000E+00
  0.00000000E+00  0.00000000E+00  0.00000000E+00
  0.00000000E+00  0.00000000E+00  0.00000000E+00
  0.00000000E+00  0.00000000E+00  0.00000000E+00
  0.00000000E+00  0.00000000E+00  0.00000000E+00
  0.00000000E+00  0.00000000E+00  0.00000000E+00
  0.00000000E+00  0.00000000E+00  0.00000000E+00
  0.00000000E+00  0.00000000E+00  0.00000000E+00
  0.00000000E+00  0.00000000E+00  0.00000000E+00
  0.00000000E+00  0.00000000E+00  0.00000000E+00
  0.00000000E+00  0.00000000E+00  0.00000000E+00
  0.00000000E+00  0.00000000E+00  0.00000000E+00
  0.00000000E+00  0.00000000E+00  0.00000000E+00
  0.00000000E+00  0.00000000E+00  0.00000000E+00
  0.00000000E+00  0.00000000E+00  0.00000000E+00
  0.00000000E+00  0.00000000E+00  0.00000000E+00
  0.00000000E+00  0.00000000E+00  0.00000000E+00
  0.00000000E+00  0.00000000E+00  0.00000000E+00
  0.00000000E+00  0.00000000E+00  0.00000000E+00
  0.00000000E+00  0.00000000E+00  0.00000000E+00
  0.00000000E+00  0.00000000E+00  0.00000000E+00
  0.00000000E+00  0.00000000E+00  0.00000000E+00
  0.00000000E+00  0.00000000E+00  0.00000000E+00
  0.00000000E+00  0.00000000E+00  0.00000000E+00
  0.00000000E+00  0.00000000E+00  0.00000000E+00
  0.00000000E+00  0.00000000E+00  0.00000000E+00
  0.00000000E+00  0.00000000E+00  0.00000000E+00
  0.00000000E+00  0.00000000E+00  0.00000000E+00
  0.00000000E+00  0.00000000E+00  0.00000000E+00
  0.00000000E+00  0.00000000E+00  0.00000000E+00
  0.00000000E+00  0.00000000E+00  0.00000000E+00
  0.00000000E+00  0.00000000E+00  0.00000000E+00
  0.00000000E+00  0.00000000E+00  0.00000000E+00
  0.00000000E+00  0.00000000E+00  0.00000000E+00
  0.00000000E+00  0.00000000E+00  0.00000000E+00
  0.00000000E+00  0.00000000E+00  0.00000000E+00
  0.00000000E+00  0.00000000E+00  0.00000000E+00
  0.00000000E+00  0.00000000E+00  0.00000000E+00
  0.00000000E+00  0.00000000E+00  0.00000000E+00
  0.00000000E+00  0.00000000E+00  0.00000000E+00
  0.00000000E+00  0.00000000E+00  0.00000000E+00
  0.00000000E+00  0.00000000E+00  0.00000000E+00
  0.00000000E+00  0.00000000E+00  0.00000000E+00
  0.00000000E+00  0.00000000E+00  0.00000000E+00
  0.00000000E+00  0.00000000E+00  0.00000000E+00
  0.00000000E+00  0.00000000E+00  0.00000000E+00
  0.00000000E+00  0.00000000E+00  0.00000000E+00
  0.00000000E+00  0.00000000E+00  0.00000000E+00
  0.00000000E+00  0.00000000E+00  0.00000000E+00
  0.00000000E+00  0.00000000E+00  0.00000000E+00
  0.00000000E+00  0.00000000E+00  0.00000000E+00
  0.00000000E+00  0.00000000E+00  0.00000000E+00
  0.00000000E+00  0.00000000E+00  0.00000000E+00
  0.00000000E+00  0.00000000E+00  0.00000000E+00
  0.00000000E+00  0.00000000E+00  0.00000000E+00
  0.00000000E+00  0.00000000E+00  0.00000000E+00
  0.00000000E+00  0.00000000E+00  0.00000000E+00
  0.00000000E+00  0.00000000E+00  0.00000000E+00
  0.00000000E+00  0.00000000E+00  0.00000000E+00
  0.00000000E+00  0.00000000E+00  0.00000000E+00
  0.00000000E+00  0.00000000E+00  0.00000000E+00
  0.00000000E+00  0.00000000E+00  0.00000000E+00
  0.00000000E+00  0.00000000E+00  0.00000000E+00
  0.00000000E+00  0.00000000E+00  0.00000000E+00
  0.00000000E+00  0.00000000E+00  0.00000000E+00
  0.00000000E+00  0.00000000E+00  0.00000000E+00
  0.00000000E+00  0.00000000E+00  0.00000000E+00
  0.00000000E+00  0.00000000E+00  0.00000000E+00
  0.00000000E+00  0.00000000E+00  0.00000000E+00
  0.00000000E+00  0.00000000E+00  0.00000000E+00
  0.00000000E+00  0.00000000E+00  0.00000000E+00
  0.00000000E+00  0.00000000E+00  0.00000000E+00
  0.00000000E+00  0.00000000E+00  0.00000000E+00
  0.00000000E+00  0.00000000E+00  0.00000000E+00
  0.00000000E+00  0.00000000E+00  0.00000000E+00
  0.00000000E+00  0.00000000E+00  0.00000000E+00
  0.00000000E+00  0.00000000E+00  0.00000000E+00
  0.00000000E+00  0.00000000E+00  0.00000000E+00
  0.00000000E+00  0.00000000E+00  0.00000000E+00
  0.00000000E+00  0.00000000E+00  0.00000000E+00
  0.00000000E+00  0.00000000E+00  0.00000000E+00
  0.00000000E+00  0.00000000E+00  0.00000000E+00
  0.00000000E+00  0.00000000E+00  0.00000000E+00
  0.00000000E+00  0.00000000E+00  0.00000000E+00
  0.00000000E+00  0.00000000E+00  0.00000000E+00
  0.00000000E+00  0.00000000E+00  0.00000000E+00
  0.00000000E+00  0.00000000E+00  0.00000000E+00
  0.00000000E+00  0.00000000E+00  0.00000000E+00
  0.00000000E+00  0.00000000E+00  0.00000000E+00
  0.00000000E+00  0.00000000E+00  0.00000000E+00
  0.00000000E+00  0.00000000E+00  0.00000000E+00
  0.00000000E+00  0.00000000E+00  0.00000000E+00
  0.00000000E+00  0.00000000E+00  0.00000000E+00
  0.00000000E+00  0.00000000E+00  0.00000000E+00
  0.00000000E+00  0.00000000E+00  0.00000000E+00
  0.00000000E+00  0.00000000E+00  0.00000000E+00
  0.00000000E+00  0.00000000E+00  0.00000000E+00
  0.00000000E+00  0.00000000E+00  0.00000000E+00
  0.00000000E+00  0.00000000E+00  0.00000000E+00
  0.00000000E+00  0.00000000E+00  0.00000000E+00
  0.00000000E+00  0.00000000E+00  0.00000000E+00
  0.00000000E+00  0.00000000E+00  0.00000000E+00
  0.00000000E+00  0.00000000E+00  0.00000000E+00
  0.00000000E+00  0.00000000E+00  0.00000000E+00
  0.00000000E+00  0.00000000E+00  0.00000000E+00
  0.00000000E+00  0.00000000E+00  0.00000000E+00
  0.00000000E+00  0.00000000E+00  0.00000000E+00
  0.00000000E+00  0.00000000E+00  0.00000000E+00
  0.00000000E+00  0.00000000E+00  0.00000000E+00
  0.00000000E+00  0.00000000E+00  0.00000000E+00
  0.00000000E+00  0.00000000E+00  0.00000000E+00
  0.00000000E+00  0.00000000E+00  0.00000000E+00
  0.00000000E+00  0.00000000E+00  0.00000000E+00
  0.00000000E+00  0.00000000E+00  0.00000000E+00
  0.00000000E+00  0.00000000E+00  0.00000000E+00
  0.00000000E+00  0.00000000E+00  0.00000000E+00
  0.00000000E+00  0.00000000E+00  0.00000000E+00
  0.00000000E+00  0.00000000E+00  0.00000000E+00
  0.00000000E+00  0.00000000E+00  0.00000000E+00
  0.00000000E+00  0.00000000E+00  0.00000000E+00
  0.00000000E+00  0.00000000E+00  0.00000000E+00
  0.00000000E+00  0.00000000E+00  0.00000000E+00
  0.00000000E+00  0.00000000E+00  0.00000000E+00
  0.00000000E+00  0.00000000E+00  0.00000000E+00
  0.00000000E+00  0.00000000E+00  0.00000000E+00
  0.00000000E+00  0.00000000E+00  0.00000000E+00
  0.00000000E+00  0.00000000E+00  0.00000000E+00
  0.00000000E+00  0.00000000E+00  0.00000000E+00
  0.00000000E+00  0.00000000E+00  0.00000000E+00
  0.00000000E+00  0.00000000E+00  0.00000000E+00
  0.00000000E+00  0.00000000E+00  0.00000000E+00
  0.00000000E+00  0.00000000E+00  0.00000000E+00
