Hf  O  F  H                             
   1.00000000000000     
    13.7225301000000002    0.0000000000000000    0.0000000000000000
     0.0000000000000000   13.7225301000000002    0.0000000000000000
     0.0000000000000000    0.0000000000000000   32.7225301000000002
   Hf   O    F    H 
    72   144     4     4
Direct
  0.1477814471420677  0.8601282119175867  0.4139245823220726
  0.8743422238331219  0.9494750418887896  0.5049624141070224
  0.0207674027026399  0.6297735466145253  0.3967985312381623
  0.8706508478662884  0.6383468304254960  0.3092518093681532
  0.0704575533662929  0.7808483382994088  0.3155614723063452
  0.3945177230510691  0.9445062698180282  0.5565364090576191
  0.6353273265142912  0.5210885277389575  0.2779323665826430
  0.6553717733042560  0.7835862761017699  0.2883488041899945
  0.0424559289092726  0.6483075616979989  0.6675095506524577
  0.2905282550621878  0.0572956194184046  0.4138413844686438
  0.9262139626361782  0.7382023890929905  0.4698883400682018
  0.2887355882216069  0.7503590882486308  0.3101535898087719
  0.1036228010785255  0.5196289808300903  0.3162068067518567
  0.3287181648124933  0.1557176641846130  0.5300478390868784
  0.5296304914462902  0.9934292991287585  0.6631923790437348
  0.2800156795679447  0.6269951894859993  0.6573958498450952
  0.5594621442479674  0.3880678849841039  0.5362134028951424
  0.4761272382315845  0.9726365733630996  0.3237790584667655
  0.2937608232403783  0.6314399677254064  0.3992021016642964
  0.8982858878440754  0.7225383508572678  0.5684354905515313
  0.8398203067902210  0.4234076705692414  0.3132765672591045
  0.9156333516863611  0.1036095294284154  0.5780453192657088
  0.0104727929474077  0.3533009235437190  0.3907585158954939
  0.9273073184206937  0.5024066613924444  0.5933309863370918
  0.1478120567591324  0.5639857575937026  0.5745896351996398
  0.1748136690174028  0.2497977989697890  0.4463930068344139
  0.1162648165834812  0.2865608762134288  0.5421186773913993
  0.7464786783759401  0.5483961973401911  0.5167173624722103
  0.3487668198619870  0.1535581956349558  0.6388381078259637
  0.6617873833337523  0.1584315735099053  0.6060323023401657
  0.5402459592729220  0.3192730375081086  0.6713028575677037
  0.2743357652723354  0.4409710990090665  0.4965180603701531
  0.3182828623703697  0.3651528396579909  0.6054054563650051
  0.8647212509673927  0.9758592182107345  0.4080303980123062
  0.1513759572137354  0.0360827962387628  0.5077239326099605
  0.7804426225818506  0.7422339822648950  0.6564579889405238
  0.4926414380938869  0.6318108613627583  0.3520044953359032
  0.0203957223544369  0.4729674497300462  0.4963034682749343
  0.8823011872345889  0.9253271126082424  0.3083907470073137
  0.4172532171106967  0.8133899012187839  0.4503695554825694
  0.4559849308643114  0.3104865559444410  0.4468109383696417
  0.6377126106125109  0.7947361884124320  0.4888021323781425
  0.3612675751937980  0.7110321736445452  0.5539529964290603
  0.1468542319784762  0.8197289580980046  0.5803613396935238
  0.6932033917022843  0.2165104487696759  0.4215319324942707
  0.5573145894867930  0.0016667167045928  0.4182572275648497
  0.2928991144545997  0.9327744640330308  0.6457583170358482
  0.4795734861903769  0.5564739994677849  0.4722601181246157
  0.5697437682847433  0.1554394065776108  0.5140466827073938
  0.0687688854277889  0.0480876342367428  0.3594603569288138
  0.8042908683788235  0.4117414773406675  0.4367972460432988
  0.6981657379669033  0.9316322286995206  0.5728330969669684
  0.4911509419292181  0.7766615409880553  0.6567275798690684
  0.6825758796979000  0.8375360636013190  0.3757927304084771
  0.2664619104500304  0.9879804972591124  0.3089392889060515
  0.4612546599564937  0.5455468859798780  0.6163049392343554
  0.6546599806735918  0.2814700380588890  0.2841746921109022
  0.6343220215109096  0.7026288755811557  0.5844761178946145
  0.0022177240877701  0.9023312601330954  0.6489425663889774
  0.7473330035739194  0.6277839717124836  0.3956121497686721
  0.2994069235810269  0.4040273096968094  0.3757003581861494
  0.6921895835749162  0.0217588458232870  0.2676656962620512
  0.5731988330729577  0.4124264773687410  0.3716263945213379
  0.4422440684969073  0.2035443712182534  0.3591965550272598
  0.6909497150626659  0.4878270992055209  0.6209238770171176
  0.1632769866503971  0.6786051144556591  0.4781876289928396
  0.8348972135274615  0.3073289580342662  0.6485759553753743
  0.8649831056636319  0.1835241331978434  0.3331365393552785
  0.0941436191190659  0.1870985480109583  0.6294895880671108
  0.8317508471881891  0.3346256671210202  0.5369392598630627
  0.9404253810134938  0.1843890284860148  0.4795932247069697
  0.1658908713138817  0.2425845986133236  0.3326369142782024
  0.3074152672087900  0.2767613299439413  0.3372494906657493
  0.9356898341759760  0.8243815584588143  0.5224144247055050
  0.3676494091171658  0.8738332551112742  0.3259280424948251
  0.5477373285761323  0.8924201975586811  0.4617214941632312
  0.0619070913683692  0.4357881923238971  0.5561634094165094
  0.0416537262717580  0.4931656734617932  0.3722448741382441
  0.0063537206490700  0.0605492943887472  0.6247436930858921
  0.3195002679988972  0.5596628102681050  0.4557494258528905
  0.1903937254894247  0.9702122222952793  0.4504387065095870
  0.0174014393953196  0.2024812302097147  0.3433236614283610
  0.3867104556835522  0.0253587876719899  0.2796183150036987
  0.1278817083874996  0.9119382298347094  0.5363997664802156
  0.4567905075449837  0.9038519806220418  0.6233574950664896
  0.7053026873092063  0.9655244214018330  0.4090837713540408
  0.2973892075656185  0.0064335897240282  0.5209147082739269
  0.5569816807470080  0.3217286575356089  0.7246715289324898
  0.0412777121383785  0.7886158007445010  0.6809705619195174
  0.7632611377806247  0.5520820229275702  0.4485540121495233
  0.8933885319942197  0.3547515658890657  0.5909871696057706
  0.3583392394765904  0.2272091417310965  0.5829256367374559
  0.8399583775106990  0.9797735748118470  0.5660998935157426
  0.2657079120375261  0.7668538932725162  0.4470246373338925
  0.0292729927475093  0.9325608707084981  0.3176660662495202
  0.7337844192864337  0.9020250792746431  0.5085469632451701
  0.3934913179400615  0.5325137109980521  0.3784039854291278
  0.9323676363515245  0.7781783551477598  0.2913162669842624
  0.8194306942276447  0.2601959912444932  0.4493527064856057
  0.0717792631389504  0.7867708130631502  0.4606478646260312
  0.1585406745782783  0.6824704522152977  0.6202237990258266
  0.8853312827400954  0.3332432607203066  0.3601468067346295
  0.5169482311200381  0.7050353007740356  0.4689843542381293
  0.7974900615369845  0.5842469745159158  0.5764310054983218
  0.1854074271647605  0.1390760653398262  0.5518076610146215
  0.5497857990109926  0.2813861771560252  0.3245566436424254
  0.9594304133528671  0.4963664409507864  0.2929156466072617
  0.6646867648847471  0.6777147702816577  0.5241042250013371
  0.5571992769766664  0.2547542871888427  0.4039953198660418
  0.0100608249079615  0.6230821744727609  0.5579203177125251
  0.9665726774893004  0.3203408604467493  0.5078596316341397
  0.4361237418376726  0.2072597947276316  0.4933238253208190
  0.4266331406017233  0.4133512325435167  0.4978933161266776
  0.8890734341494004  0.6835832493551401  0.4124086351584747
  0.4224017887141255  0.7139496563144009  0.4002868845690805
  0.5697350660074580  0.1551714055051553  0.6646565212395236
  0.7834039737977481  0.5453094918476866  0.2776918033423454
  0.8751452749948208  0.8698623955739236  0.4495402843463383
  0.5979191830527176  0.2488463896251727  0.5627396919199660
  0.5879308773776254  0.2959965402807329  0.4863625705447401
  0.8116438607215958  0.1732615278857685  0.6149726375893803
  0.1946292521818588  0.8588287528478427  0.2893503129698622
  0.3510806127034062  0.0678575268779679  0.3531029520251391
  0.6949616324147173  0.6282443732952261  0.6388522631989094
  0.3160667495668824  0.6148831600116602  0.5968244562276932
  0.5294119942248393  0.5056569310657617  0.3190198246200615
  0.8865958738125723  0.9390403818850913  0.6849076105731692
  0.2065589514194844  0.7079169698776016  0.5394133302798704
  0.4690764949617935  0.0654491175655257  0.5411820992378792
  0.1316903663875247  0.3814066321033767  0.4763176397633978
  0.1985677162186332  0.9586281150266120  0.3693601974711920
  0.6304408197869245  0.7929260154989568  0.6390517230066285
  0.6646962104634044  0.0749170641415072  0.5527504692799871
  0.2250402448562669  0.5260694068131483  0.3549055556792806
  0.4017235447024883  0.6652754258722260  0.3071450532753476
  0.4512131411213535  0.4141834689117229  0.5816270190133632
  0.0240103143686919  0.9619202821340144  0.4068784704978092
  0.9820274562329194  0.0538964310377145  0.5198706121730432
  0.3285176821706786  0.4819218573298454  0.6444046250014499
  0.5818130433672274  0.9212673930861609  0.2830158906774822
  0.8074828841045845  0.2806231649385859  0.2902514440259925
  0.0139669573694941  0.6120755543273645  0.4671025157028579
  0.0180696516453296  0.2408806265785161  0.4289908661614367
  0.4816642629149157  0.7080916376250891  0.5956181701240506
  0.4342792775944929  0.3521826572036878  0.3779999918904946
  0.2560344729727592  0.1351537152339123  0.4677954448017059
  0.8429361727734251  0.1885206017784155  0.5307897216981973
  0.1773936720465835  0.2981013759110723  0.6025340577659997
  0.0186228158512982  0.2094872093056690  0.5758371013399963
  0.9035960341960716  0.6699356138391137  0.6315600261682196
  0.7662521362031620  0.8820279011281451  0.2712964295223008
  0.7687180836212854  0.7888652067099360  0.5875021881410738
  0.5127635776845609  0.1385013284825734  0.6250831445164325
  0.8429839789222128  0.6698331684039794  0.5096370292611638
  0.3017256734775977  0.8400010582912815  0.5882142624703457
  0.3938625044531421  0.0409510215997633  0.6751070932250648
  0.3857497192597843  0.1813645165822941  0.4148588686979938
  0.6193370729165719  0.1099261742385061  0.4563243035784720
  0.1589099680063042  0.5456267272144190  0.5074495311617446
  0.5208293911679567  0.4459768900029078  0.4309262289461450
  0.1301615719158470  0.3737709724031081  0.3081512334651279
  0.5489983786276011  0.9002966667146970  0.3736291237673585
  0.8354588119090867  0.5380546915900402  0.3578277044003530
  0.5878258481893277  0.5580934358112237  0.5829748946713353
  0.0085638938902994  0.6424351641384585  0.3336014056386876
  0.7030117522285781  0.4172862202532910  0.5631175116375143
  0.2375008228227368  0.7484475305493631  0.3657858068732382
  0.8892580221831319  0.4809976509180446  0.5284528215893062
  0.8639043620001901  0.0625648332272875  0.4573404025444197
  0.3280872024766333  0.0328867310669495  0.6002375784228406
  0.6897596378953997  0.4148395635352188  0.3190532289613462
  0.7602149252383514  0.1654465213259507  0.3729757716239879
  0.5340205457845413  0.0814173595467720  0.3629768610019474
  0.0010758332602504  0.8188384637031949  0.5964608605312340
  0.3913640365521710  0.2903047092353993  0.6561371239101441
  0.4007269337479648  0.9570738664743398  0.4263148740039301
  0.6187987626678442  0.5647567945495292  0.3819822837057295
  0.6408000653611933  0.1523155835006097  0.2571019962756499
  0.6947180848740115  0.7512542272189477  0.4269485404641323
  0.8257379018773838  0.8821434508065642  0.3601901824524238
  0.9508948496280434  0.4333762838541672  0.4376913616267753
  0.8492085785758097  0.8824174519217444  0.6490694515572819
  0.5963444589570508  0.5094348609401235  0.5042399096400062
  0.0529637517101308  0.5276262180853173  0.6242117021254840
  0.4360092760841383  0.6367025853848872  0.6667996296326331
  0.6246845686733338  0.6611232407905243  0.2592514902579301
  0.5605814588412439  0.4632844159837057  0.6508256534859834
  0.5815405219643397  0.7466625062538955  0.3387538755587036
  0.7599703528250678  0.7137746051547115  0.3367618067048087
  0.7007361724525011  0.3631633536114005  0.3998396478871419
  0.7537256867101706  0.4020439730796737  0.4920088496391311
  0.3021202787630827  0.3584023750042549  0.4374430265569489
  0.7841371999266876  0.7289030002608163  0.7138785157107030
  0.5214966241595459  0.8786451172287472  0.6981115268287011
  0.8251860858676550  0.0633929884833015  0.2899474413041479
  0.1718600360925119  0.1453621345494479  0.3918179141904717
  0.2116916835289075  0.1352292552917355  0.6558484387424326
  0.5918295834377343  0.8402092739435545  0.5515666658463884
  0.1601674718188470  0.3309276160785385  0.3871856509507331
  0.0892707309949417  0.1829041593766731  0.4912781119317998
  0.2549011709050039  0.4526100255709239  0.5600239499836880
  0.9966109223548009  0.2721498132159604  0.6612909109766743
  0.0545701176729362  0.7761964143999524  0.3773249533240964
  0.9154452215394582  0.0504051695793661  0.3563219703267482
  0.6536869223224182  0.0071520704389322  0.6249865292465239
  0.4070895647729043  0.5999029286979577  0.5235606790802146
  0.8273220014435877  0.4574545549297068  0.6436564069983102
  0.1548087555359708  0.6195417994276851  0.4208724936667099
  0.3946404696591795  0.8261946305034257  0.5141703482063372
  0.1704774590869450  0.5929061820934349  0.6925340841506893
  0.3224783651734875  0.7846316690573626  0.6706710686828935
  0.1625536102442407  0.6632700049085342  0.2941316124756180
  0.1655112716682620  0.1003622663687639  0.3099193653626200
  0.6849649060192402  0.3065483982660840  0.6390675880534317
  0.1527502371611494  0.9140365945188637  0.6288912296089009
  0.2546369554580318  0.2910103771872742  0.5130918678258204
  0.1262882883994891  0.4075128757251799  0.7013856885399452
  0.8288270364766913  0.2909660182609650  0.7064435591184386
  0.2451081009714698  0.9320489763058796  0.7025714501410508
  0.9655405542458947  0.5901668824017481  0.7102964130824384
  0.0245139169016611  0.3176909286897601  0.6816140502785131
  0.2994778783607903  0.8067089072698106  0.6978705126172299
  0.8108794497322457  0.7134729858844687  0.7404001919657470
  0.1425938220215867  0.4773448672557332  0.7003980652373472
 
  0.00000000E+00  0.00000000E+00  0.00000000E+00
  0.00000000E+00  0.00000000E+00  0.00000000E+00
  0.00000000E+00  0.00000000E+00  0.00000000E+00
  0.00000000E+00  0.00000000E+00  0.00000000E+00
  0.00000000E+00  0.00000000E+00  0.00000000E+00
  0.00000000E+00  0.00000000E+00  0.00000000E+00
  0.00000000E+00  0.00000000E+00  0.00000000E+00
  0.00000000E+00  0.00000000E+00  0.00000000E+00
  0.00000000E+00  0.00000000E+00  0.00000000E+00
  0.00000000E+00  0.00000000E+00  0.00000000E+00
  0.00000000E+00  0.00000000E+00  0.00000000E+00
  0.00000000E+00  0.00000000E+00  0.00000000E+00
  0.00000000E+00  0.00000000E+00  0.00000000E+00
  0.00000000E+00  0.00000000E+00  0.00000000E+00
  0.00000000E+00  0.00000000E+00  0.00000000E+00
  0.00000000E+00  0.00000000E+00  0.00000000E+00
  0.00000000E+00  0.00000000E+00  0.00000000E+00
  0.00000000E+00  0.00000000E+00  0.00000000E+00
  0.00000000E+00  0.00000000E+00  0.00000000E+00
  0.00000000E+00  0.00000000E+00  0.00000000E+00
  0.00000000E+00  0.00000000E+00  0.00000000E+00
  0.00000000E+00  0.00000000E+00  0.00000000E+00
  0.00000000E+00  0.00000000E+00  0.00000000E+00
  0.00000000E+00  0.00000000E+00  0.00000000E+00
  0.00000000E+00  0.00000000E+00  0.00000000E+00
  0.00000000E+00  0.00000000E+00  0.00000000E+00
  0.00000000E+00  0.00000000E+00  0.00000000E+00
  0.00000000E+00  0.00000000E+00  0.00000000E+00
  0.00000000E+00  0.00000000E+00  0.00000000E+00
  0.00000000E+00  0.00000000E+00  0.00000000E+00
  0.00000000E+00  0.00000000E+00  0.00000000E+00
  0.00000000E+00  0.00000000E+00  0.00000000E+00
  0.00000000E+00  0.00000000E+00  0.00000000E+00
  0.00000000E+00  0.00000000E+00  0.00000000E+00
  0.00000000E+00  0.00000000E+00  0.00000000E+00
  0.00000000E+00  0.00000000E+00  0.00000000E+00
  0.00000000E+00  0.00000000E+00  0.00000000E+00
  0.00000000E+00  0.00000000E+00  0.00000000E+00
  0.00000000E+00  0.00000000E+00  0.00000000E+00
  0.00000000E+00  0.00000000E+00  0.00000000E+00
  0.00000000E+00  0.00000000E+00  0.00000000E+00
  0.00000000E+00  0.00000000E+00  0.00000000E+00
  0.00000000E+00  0.00000000E+00  0.00000000E+00
  0.00000000E+00  0.00000000E+00  0.00000000E+00
  0.00000000E+00  0.00000000E+00  0.00000000E+00
  0.00000000E+00  0.00000000E+00  0.00000000E+00
  0.00000000E+00  0.00000000E+00  0.00000000E+00
  0.00000000E+00  0.00000000E+00  0.00000000E+00
  0.00000000E+00  0.00000000E+00  0.00000000E+00
  0.00000000E+00  0.00000000E+00  0.00000000E+00
  0.00000000E+00  0.00000000E+00  0.00000000E+00
  0.00000000E+00  0.00000000E+00  0.00000000E+00
  0.00000000E+00  0.00000000E+00  0.00000000E+00
  0.00000000E+00  0.00000000E+00  0.00000000E+00
  0.00000000E+00  0.00000000E+00  0.00000000E+00
  0.00000000E+00  0.00000000E+00  0.00000000E+00
  0.00000000E+00  0.00000000E+00  0.00000000E+00
  0.00000000E+00  0.00000000E+00  0.00000000E+00
  0.00000000E+00  0.00000000E+00  0.00000000E+00
  0.00000000E+00  0.00000000E+00  0.00000000E+00
  0.00000000E+00  0.00000000E+00  0.00000000E+00
  0.00000000E+00  0.00000000E+00  0.00000000E+00
  0.00000000E+00  0.00000000E+00  0.00000000E+00
  0.00000000E+00  0.00000000E+00  0.00000000E+00
  0.00000000E+00  0.00000000E+00  0.00000000E+00
  0.00000000E+00  0.00000000E+00  0.00000000E+00
  0.00000000E+00  0.00000000E+00  0.00000000E+00
  0.00000000E+00  0.00000000E+00  0.00000000E+00
  0.00000000E+00  0.00000000E+00  0.00000000E+00
  0.00000000E+00  0.00000000E+00  0.00000000E+00
  0.00000000E+00  0.00000000E+00  0.00000000E+00
  0.00000000E+00  0.00000000E+00  0.00000000E+00
  0.00000000E+00  0.00000000E+00  0.00000000E+00
  0.00000000E+00  0.00000000E+00  0.00000000E+00
  0.00000000E+00  0.00000000E+00  0.00000000E+00
  0.00000000E+00  0.00000000E+00  0.00000000E+00
  0.00000000E+00  0.00000000E+00  0.00000000E+00
  0.00000000E+00  0.00000000E+00  0.00000000E+00
  0.00000000E+00  0.00000000E+00  0.00000000E+00
  0.00000000E+00  0.00000000E+00  0.00000000E+00
  0.00000000E+00  0.00000000E+00  0.00000000E+00
  0.00000000E+00  0.00000000E+00  0.00000000E+00
  0.00000000E+00  0.00000000E+00  0.00000000E+00
  0.00000000E+00  0.00000000E+00  0.00000000E+00
  0.00000000E+00  0.00000000E+00  0.00000000E+00
  0.00000000E+00  0.00000000E+00  0.00000000E+00
  0.00000000E+00  0.00000000E+00  0.00000000E+00
  0.00000000E+00  0.00000000E+00  0.00000000E+00
  0.00000000E+00  0.00000000E+00  0.00000000E+00
  0.00000000E+00  0.00000000E+00  0.00000000E+00
  0.00000000E+00  0.00000000E+00  0.00000000E+00
  0.00000000E+00  0.00000000E+00  0.00000000E+00
  0.00000000E+00  0.00000000E+00  0.00000000E+00
  0.00000000E+00  0.00000000E+00  0.00000000E+00
  0.00000000E+00  0.00000000E+00  0.00000000E+00
  0.00000000E+00  0.00000000E+00  0.00000000E+00
  0.00000000E+00  0.00000000E+00  0.00000000E+00
  0.00000000E+00  0.00000000E+00  0.00000000E+00
  0.00000000E+00  0.00000000E+00  0.00000000E+00
  0.00000000E+00  0.00000000E+00  0.00000000E+00
  0.00000000E+00  0.00000000E+00  0.00000000E+00
  0.00000000E+00  0.00000000E+00  0.00000000E+00
  0.00000000E+00  0.00000000E+00  0.00000000E+00
  0.00000000E+00  0.00000000E+00  0.00000000E+00
  0.00000000E+00  0.00000000E+00  0.00000000E+00
  0.00000000E+00  0.00000000E+00  0.00000000E+00
  0.00000000E+00  0.00000000E+00  0.00000000E+00
  0.00000000E+00  0.00000000E+00  0.00000000E+00
  0.00000000E+00  0.00000000E+00  0.00000000E+00
  0.00000000E+00  0.00000000E+00  0.00000000E+00
  0.00000000E+00  0.00000000E+00  0.00000000E+00
  0.00000000E+00  0.00000000E+00  0.00000000E+00
  0.00000000E+00  0.00000000E+00  0.00000000E+00
  0.00000000E+00  0.00000000E+00  0.00000000E+00
  0.00000000E+00  0.00000000E+00  0.00000000E+00
  0.00000000E+00  0.00000000E+00  0.00000000E+00
  0.00000000E+00  0.00000000E+00  0.00000000E+00
  0.00000000E+00  0.00000000E+00  0.00000000E+00
  0.00000000E+00  0.00000000E+00  0.00000000E+00
  0.00000000E+00  0.00000000E+00  0.00000000E+00
  0.00000000E+00  0.00000000E+00  0.00000000E+00
  0.00000000E+00  0.00000000E+00  0.00000000E+00
  0.00000000E+00  0.00000000E+00  0.00000000E+00
  0.00000000E+00  0.00000000E+00  0.00000000E+00
  0.00000000E+00  0.00000000E+00  0.00000000E+00
  0.00000000E+00  0.00000000E+00  0.00000000E+00
  0.00000000E+00  0.00000000E+00  0.00000000E+00
  0.00000000E+00  0.00000000E+00  0.00000000E+00
  0.00000000E+00  0.00000000E+00  0.00000000E+00
  0.00000000E+00  0.00000000E+00  0.00000000E+00
  0.00000000E+00  0.00000000E+00  0.00000000E+00
  0.00000000E+00  0.00000000E+00  0.00000000E+00
  0.00000000E+00  0.00000000E+00  0.00000000E+00
  0.00000000E+00  0.00000000E+00  0.00000000E+00
  0.00000000E+00  0.00000000E+00  0.00000000E+00
  0.00000000E+00  0.00000000E+00  0.00000000E+00
  0.00000000E+00  0.00000000E+00  0.00000000E+00
  0.00000000E+00  0.00000000E+00  0.00000000E+00
  0.00000000E+00  0.00000000E+00  0.00000000E+00
  0.00000000E+00  0.00000000E+00  0.00000000E+00
  0.00000000E+00  0.00000000E+00  0.00000000E+00
  0.00000000E+00  0.00000000E+00  0.00000000E+00
  0.00000000E+00  0.00000000E+00  0.00000000E+00
  0.00000000E+00  0.00000000E+00  0.00000000E+00
  0.00000000E+00  0.00000000E+00  0.00000000E+00
  0.00000000E+00  0.00000000E+00  0.00000000E+00
  0.00000000E+00  0.00000000E+00  0.00000000E+00
  0.00000000E+00  0.00000000E+00  0.00000000E+00
  0.00000000E+00  0.00000000E+00  0.00000000E+00
  0.00000000E+00  0.00000000E+00  0.00000000E+00
  0.00000000E+00  0.00000000E+00  0.00000000E+00
  0.00000000E+00  0.00000000E+00  0.00000000E+00
  0.00000000E+00  0.00000000E+00  0.00000000E+00
  0.00000000E+00  0.00000000E+00  0.00000000E+00
  0.00000000E+00  0.00000000E+00  0.00000000E+00
  0.00000000E+00  0.00000000E+00  0.00000000E+00
  0.00000000E+00  0.00000000E+00  0.00000000E+00
  0.00000000E+00  0.00000000E+00  0.00000000E+00
  0.00000000E+00  0.00000000E+00  0.00000000E+00
  0.00000000E+00  0.00000000E+00  0.00000000E+00
  0.00000000E+00  0.00000000E+00  0.00000000E+00
  0.00000000E+00  0.00000000E+00  0.00000000E+00
  0.00000000E+00  0.00000000E+00  0.00000000E+00
  0.00000000E+00  0.00000000E+00  0.00000000E+00
  0.00000000E+00  0.00000000E+00  0.00000000E+00
  0.00000000E+00  0.00000000E+00  0.00000000E+00
  0.00000000E+00  0.00000000E+00  0.00000000E+00
  0.00000000E+00  0.00000000E+00  0.00000000E+00
  0.00000000E+00  0.00000000E+00  0.00000000E+00
  0.00000000E+00  0.00000000E+00  0.00000000E+00
  0.00000000E+00  0.00000000E+00  0.00000000E+00
  0.00000000E+00  0.00000000E+00  0.00000000E+00
  0.00000000E+00  0.00000000E+00  0.00000000E+00
  0.00000000E+00  0.00000000E+00  0.00000000E+00
  0.00000000E+00  0.00000000E+00  0.00000000E+00
  0.00000000E+00  0.00000000E+00  0.00000000E+00
  0.00000000E+00  0.00000000E+00  0.00000000E+00
  0.00000000E+00  0.00000000E+00  0.00000000E+00
  0.00000000E+00  0.00000000E+00  0.00000000E+00
  0.00000000E+00  0.00000000E+00  0.00000000E+00
  0.00000000E+00  0.00000000E+00  0.00000000E+00
  0.00000000E+00  0.00000000E+00  0.00000000E+00
  0.00000000E+00  0.00000000E+00  0.00000000E+00
  0.00000000E+00  0.00000000E+00  0.00000000E+00
  0.00000000E+00  0.00000000E+00  0.00000000E+00
  0.00000000E+00  0.00000000E+00  0.00000000E+00
  0.00000000E+00  0.00000000E+00  0.00000000E+00
  0.00000000E+00  0.00000000E+00  0.00000000E+00
  0.00000000E+00  0.00000000E+00  0.00000000E+00
  0.00000000E+00  0.00000000E+00  0.00000000E+00
  0.00000000E+00  0.00000000E+00  0.00000000E+00
  0.00000000E+00  0.00000000E+00  0.00000000E+00
  0.00000000E+00  0.00000000E+00  0.00000000E+00
  0.00000000E+00  0.00000000E+00  0.00000000E+00
  0.00000000E+00  0.00000000E+00  0.00000000E+00
  0.00000000E+00  0.00000000E+00  0.00000000E+00
  0.00000000E+00  0.00000000E+00  0.00000000E+00
  0.00000000E+00  0.00000000E+00  0.00000000E+00
  0.00000000E+00  0.00000000E+00  0.00000000E+00
  0.00000000E+00  0.00000000E+00  0.00000000E+00
  0.00000000E+00  0.00000000E+00  0.00000000E+00
  0.00000000E+00  0.00000000E+00  0.00000000E+00
  0.00000000E+00  0.00000000E+00  0.00000000E+00
  0.00000000E+00  0.00000000E+00  0.00000000E+00
  0.00000000E+00  0.00000000E+00  0.00000000E+00
  0.00000000E+00  0.00000000E+00  0.00000000E+00
  0.00000000E+00  0.00000000E+00  0.00000000E+00
  0.00000000E+00  0.00000000E+00  0.00000000E+00
  0.00000000E+00  0.00000000E+00  0.00000000E+00
  0.00000000E+00  0.00000000E+00  0.00000000E+00
  0.00000000E+00  0.00000000E+00  0.00000000E+00
  0.00000000E+00  0.00000000E+00  0.00000000E+00
  0.00000000E+00  0.00000000E+00  0.00000000E+00
  0.00000000E+00  0.00000000E+00  0.00000000E+00
  0.00000000E+00  0.00000000E+00  0.00000000E+00
  0.00000000E+00  0.00000000E+00  0.00000000E+00
  0.00000000E+00  0.00000000E+00  0.00000000E+00
  0.00000000E+00  0.00000000E+00  0.00000000E+00
  0.00000000E+00  0.00000000E+00  0.00000000E+00
  0.00000000E+00  0.00000000E+00  0.00000000E+00
  0.00000000E+00  0.00000000E+00  0.00000000E+00
  0.00000000E+00  0.00000000E+00  0.00000000E+00
  0.00000000E+00  0.00000000E+00  0.00000000E+00
  0.00000000E+00  0.00000000E+00  0.00000000E+00
