Hf  O  F  H                             
   1.00000000000000     
    13.7225301000000002    0.0000000000000000    0.0000000000000000
     0.0000000000000000   13.7225301000000002    0.0000000000000000
     0.0000000000000000    0.0000000000000000   32.7225301000000002
   Hf   O    F    H 
    72   144     5     5
Direct
  0.0504540266078154  0.9138370810325956  0.4298576354728859
  0.8439921899448005  0.9575818995130395  0.5066744521480760
  0.0008424222319776  0.5847573854811878  0.4024125288991392
  0.8999553006824388  0.6390696617344573  0.3112239743875115
  0.0717647042045013  0.8011269556647139  0.3305490760606718
  0.4068036881742384  0.9384847225263279  0.5620582972873416
  0.6470938992309896  0.5280368787425034  0.2817665482651560
  0.6751022194910655  0.7832295761003005  0.2988740396161088
  0.0406068020213639  0.6593154204996361  0.6635955305215915
  0.2685517257324987  0.0370154807379248  0.4168391058947646
  0.9043564021755147  0.7458958779111258  0.4640738201610701
  0.2776657821506103  0.7300701815536378  0.2988315772612077
  0.1247704112966115  0.5092171538360030  0.3145303238468354
  0.3303650040762958  0.1499570108389157  0.5380117138506826
  0.5597557525686739  0.0523267529946935  0.6842288239642397
  0.2718817496127857  0.6397918240478679  0.6563057662813715
  0.5530534018410334  0.4052559425419779  0.5457966830925027
  0.4579117238216673  0.9598535137443096  0.3221501641973457
  0.2796018749761195  0.6480152580231887  0.3957808957202680
  0.8899653184486800  0.7264981508170597  0.5636860198951602
  0.8504527511754815  0.4294004331099142  0.3153746363291219
  0.9051520373726297  0.1093773086694242  0.5776829081167852
  0.0222307701334604  0.3392687412779022  0.3885184498380327
  0.9283130821948478  0.5111004630067173  0.5928550829695806
  0.1456721686789706  0.5702475862355472  0.5722820412095503
  0.1804101266187456  0.2456782536160489  0.4516026330731313
  0.1104001918852328  0.2931361034640613  0.5442066731125635
  0.7412752587547240  0.5536374613565291  0.5126413391719397
  0.3740881348269161  0.1610629736724334  0.6429759830125179
  0.6532467631431085  0.1740042033137485  0.6157053353805462
  0.5458018462215034  0.3124655338165830  0.6843398619676103
  0.2764161944738897  0.4368749557605243  0.5009259226572162
  0.3097130313305653  0.3682219570373793  0.6103361482920492
  0.8255877429765155  0.0140524040079390  0.4079317518095502
  0.1532250162284052  0.0365278759839911  0.5137866895695709
  0.7963722697746114  0.7234703301752861  0.6615585401723387
  0.4931385156476523  0.6415339435842693  0.3540097033727387
  0.0174360272400977  0.4741950963080000  0.4970187594675110
  0.8763503650537053  0.9264433427941071  0.3150673689880477
  0.4106929046605280  0.8055755956861111  0.4458619778578277
  0.4652374883796457  0.3002202506132127  0.4551933542432641
  0.5909890762158190  0.8171603214315626  0.5049765425658052
  0.3585246346582394  0.7038078015155241  0.5511432955650892
  0.1446764437666841  0.8200067926515476  0.5768133088658597
  0.6835717189626123  0.2187636773231925  0.4350549471306149
  0.5108821905440984  0.0298260262219672  0.4173105408287804
  0.2829842424741081  0.9490818565448710  0.6456957105481054
  0.4736660449228564  0.5498791666209406  0.4691016647954278
  0.5706584356053371  0.1528025967299041  0.5224967018107721
  0.0602423591696467  0.0614562585205622  0.3595355946815441
  0.8092650434015732  0.4117164991411309  0.4314740222505753
  0.6878451756436339  0.9339008286491101  0.5900580258497164
  0.4867954039012306  0.7890639564168642  0.6526530610084318
  0.6447891834498618  0.8588396658637478  0.3966252299917256
  0.2546902224580513  0.9792263541228472  0.3069497157296866
  0.4611047377217555  0.5412754986413266  0.6252341838588346
  0.6648135724872127  0.2845743987661080  0.2848156072514393
  0.6431741577278413  0.6867812053948331  0.5882968314461012
  0.9931744395056221  0.9054246915939590  0.6419570846885579
  0.7473365135382639  0.6381298423892980  0.3929613519004188
  0.3102395915943218  0.4284706493395153  0.3948940975398522
  0.6874778147152690  0.0251923930029094  0.2732640792771052
  0.5721070096550094  0.4156460550761791  0.3722050575265293
  0.4527156811240123  0.2112764472859833  0.3578408241421704
  0.6927766291923135  0.4759902811464896  0.6232359995240958
  0.1459997658810401  0.6813303864903808  0.4766532393019807
  0.8492841044530380  0.3099286455165526  0.6460561304826967
  0.8604266649195835  0.1900176478834698  0.3396260248309312
  0.1122909398430020  0.1648264749202105  0.6209193740260102
  0.8279287636850444  0.3420432420683745  0.5352351753747181
  0.9376542949195473  0.1825195252216452  0.4802274429728719
  0.1910834560847290  0.2403687937702958  0.3354395577637796
  0.3275058973687336  0.2271776692101412  0.3282388124778544
  0.9089056549696526  0.8310564318064880  0.5186250166486213
  0.3637947679887215  0.8552410853633127  0.3046473584702349
  0.5549398168701449  0.8782853044927779  0.4492212534749453
  0.0580334139436442  0.4402291061100249  0.5561104121179449
  0.0499457687631958  0.4734256466189763  0.3670945346255797
  0.0044498071810539  0.0521044333142179  0.6194210411782645
  0.3018981862342820  0.5173774430686561  0.4453333231869203
  0.1705703710929720  0.9680032225715145  0.4570713878251996
  0.0141571019308689  0.2123649047940837  0.3475887393492816
  0.3704012633082292  0.0348140379813190  0.2820222934031575
  0.1092898009733220  0.9117933807344235  0.5344238186221827
  0.4275641078739646  0.8955491946653745  0.6236716915829178
  0.6762281627666160  0.9973527284735091  0.4091583719957568
  0.2924785984034325  0.0019023206995106  0.5271749449389526
  0.5595336072249855  0.3546695055479371  0.7345868733245481
  0.0418643728893925  0.7981007609999388  0.6759978568834207
  0.7685505426451517  0.5534134185454995  0.4426061930004572
  0.8951124933012222  0.3606785959253819  0.5891619480594472
  0.3549627938801421  0.2326685351056108  0.5880853445070757
  0.8239908683296709  0.9836491544209812  0.5691859213634465
  0.2751681165894058  0.7342506753449775  0.4512029579458749
  0.0237826388272079  0.9501935493591490  0.3162830284677342
  0.7102253072566937  0.9001342544099674  0.5085088192814874
  0.4064944557972550  0.5572659059241497  0.3887592883871098
  0.9389250231403281  0.7835190635849074  0.2992777524639345
  0.8230293639267168  0.2674500025867250  0.4505544400384225
  0.0506473679327222  0.7901519448269353  0.4656102736522004
  0.1485906723390215  0.6902496032863570  0.6177504063421291
  0.8803863309733803  0.3379917869082483  0.3658180354347851
  0.5047048000101823  0.6924815229390547  0.4605956489457291
  0.7760458746364042  0.5922495418552722  0.5734586230360234
  0.1806872616139063  0.1353233618829430  0.5625221091896194
  0.5640960520936901  0.2888174808949395  0.3265059558016168
  0.9724952158074663  0.5044938665479592  0.2937498495006391
  0.6444115531517495  0.6921129659627756  0.5262238499444465
  0.5529116896944773  0.2500662701108931  0.4059659019919101
  0.0060657992267191  0.6258226797368512  0.5544686986402759
  0.9645723742790381  0.3241334649066491  0.5064877503256806
  0.4380948246033931  0.2158818491653785  0.5033903399275395
  0.4332559256636475  0.4095475950900229  0.5013550872515553
  0.8927619301263884  0.6865611750791230  0.4068710584021636
  0.4027557046434332  0.7403536496147310  0.3906179643345180
  0.6366723265864460  0.1808234195974131  0.6784248626562820
  0.7960250892292365  0.5479904684985761  0.2804637170074816
  0.8853202230351219  0.8973575317979781  0.4452659130600520
  0.5863027556635571  0.2611356964829162  0.5670410924714079
  0.6088574349413468  0.2823826072752358  0.4844713697389541
  0.8094105379683159  0.1790642487019583  0.6164323482646415
  0.1793227812169696  0.8500204952971459  0.2900337487529984
  0.3289607239042041 -0.0034881658377712  0.3589398293056545
  0.6944511164447598  0.6244564522018555  0.6436945656413994
  0.3036467895818938  0.6200829517561525  0.5948445419784684
  0.5360387691951159  0.5138710122412828  0.3199965634803319
  0.8787590564135922  0.9298120066047669  0.6808032137997670
  0.1973823425195916  0.7069728847355368  0.5364979452587343
  0.4635121420275251  0.0642794635433663  0.5399789092659538
  0.1359806854979334  0.3791583019247429  0.4802061363562684
  0.1524485279099150  0.9593204128617642  0.3815738869470983
  0.6207525917467913  0.8015781197008981  0.6298315984143356
  0.6554025180881623  0.0777632872751558  0.5644228982483838
  0.2354579761952396  0.5249476082481130  0.3588740876470553
  0.3997828738979724  0.6592895589875865  0.3098480009888500
  0.4382204723576815  0.4238023230597217  0.5847932662702298
 -0.0092425590348485  0.0469557047822441  0.4200964350045601
  0.9615113258394183  0.0556947633591065  0.5183041566987570
  0.3228947750924445  0.4934130705832175  0.6472487561017518
  0.5907157666755203  0.9235048457674894  0.2932974928051049
  0.8146511444965518  0.2843023528557032  0.2933211058331892
 -0.0013233394399485  0.6130828344370983  0.4672065858749873
  0.0259928868133001  0.2475517563620830  0.4335434980273290
  0.4825464418313343  0.6953889780716328  0.5921067468057069
  0.4255494870747011  0.3619594393659184  0.3702204313552077
  0.2584692774420953  0.1279547587332358  0.4705542441812816
  0.8366887396878414  0.1960777321635736  0.5310092503045449
  0.1720322860924131  0.3007566804873079  0.6051722580016363
  0.0130108258874973  0.2098101780170708  0.5746371447832619
  0.9067465331691541  0.6589776623951730  0.6238396905937976
  0.7689995446925881  0.8910316139181077  0.2713864475085089
  0.7642579771174710  0.7852956532948616  0.5879323709330166
  0.5106669044025348  0.1280541710984860  0.6282968115702472
  0.8316341759698268  0.6722496527997665  0.5059211260678543
  0.2969945813635976  0.8340870524451963  0.5770790211053852
  0.3975902798693526  0.0255587268019119  0.6818520532792104
  0.4027809010705151  0.1388704710906563  0.4111016227443034
  0.5922610884008690  0.1055987406013303  0.4615335580395810
  0.1549235498669399  0.5470657297539430  0.5047275356323110
  0.5137754490018813  0.4342834128238542  0.4311792989349308
  0.1530585914120433  0.3658991671039074  0.3065895370193954
  0.5131888448526175  0.9117157046015590  0.3773136147602014
  0.8554680732911271  0.5401718148997844  0.3606238605717291
  0.5834412421036336  0.5392995638767383  0.5850902773260030
  0.0297402489715077  0.6507339256098382  0.3426528199721258
  0.7045169049658364  0.4166290142092720  0.5619263750590168
  0.2129323902535834  0.7360134185537613  0.3533095065262160
  0.8852881866793275  0.4890093365342527  0.5289166208366333
  0.8188766039796397  0.0772875790877738  0.4633016063076648
  0.3392951945418696  0.0404270511263879  0.6007351566581339
  0.6999088488708560  0.4205955193272045  0.3202765003277961
  0.7722462229528971  0.1584228406156672  0.3851052797018172
  0.5228527245887118  0.0832644318972895  0.3513196162085068
  0.9938482063334849  0.8185721467925692  0.5916007017397975
  0.3896673282706609  0.3061622220100670  0.6575650100949235
  0.3858155536062777  0.9549231966455165  0.4382587883705787
  0.6195695937906476  0.5654121991055227  0.3829308585666018
  0.6448347638227122  0.1553935761288116  0.2563119440080241
  0.7150538912721827  0.7537266767576176  0.4269821862941702
  0.7822831594161563  0.8976409157978505  0.3605136304840820
  0.9602248931707130  0.4453130791228238  0.4328855109847524
  0.8392808599777745  0.8694819204303036  0.6465155069378272
  0.5914224219522090  0.5144946512887727  0.5034508210274854
  0.0556727048600099  0.5310539041759293  0.6234345614607617
  0.4274652706544219  0.6519995889489218  0.6666344422492538
  0.6295003978417262  0.6732392657333501  0.2675208028029384
  0.5592273925798474  0.4577755111822641  0.6551591807729986
  0.5986374637723374  0.7575026783470360  0.3504591748884251
  0.7735750276453984  0.7031012661105647  0.3313469183469311
  0.6940425229424623  0.3594074479925929  0.4020229443715583
  0.7588520353565156  0.4128374370626394  0.4880143199459450
  0.3160933548830326  0.3278821421095054  0.4443573512503292
  0.9027639894854148  0.6564999766207547  0.6990866005119087
  0.5333896385996970  0.8836961849686823  0.6975457141074658
  0.8091873137465202  0.0697908822758087  0.2969703848643711
  0.1798570822166732  0.1497483861857131  0.3931707450290388
  0.2268071579391374  0.1150664345266690  0.6530789706689998
  0.5625906070809816  0.8881306923894310  0.5588890693299979
  0.1788904776640997  0.3326847776116668  0.3894188902681834
  0.0892142766449100  0.1800195740386420  0.4963133383026814
  0.2469054876016860  0.4539158476388538  0.5617527481990718
  0.0003190386401777  0.2447908090020409  0.6554612556802543
  0.0107939870425657  0.8353410864028066  0.3821186877495449
  0.9069490656963772  0.0488925837574275  0.3552456629777618
  0.6589883014180896  0.0117992661108594  0.6396635942355201
  0.3744197761443585  0.5892648599385150  0.5135377950637483
  0.8345904445849289  0.4655021105104012  0.6422152944082510
  0.1381568394501721  0.6279583076547840  0.4175999415601087
  0.4267291893371533  0.8177282012001634  0.5133000638636945
  0.1615048883542641  0.6180157232364479  0.6928813225724278
  0.3030377325381934  0.7947555007803463  0.6698987629771852
  0.1845773999059921  0.6206224686029752  0.2823514121655482
  0.1613166131900809  0.1003046051673577  0.3134273170107690
  0.6967513643945634  0.3265936336848425  0.6386048180400229
  0.1492043883299508  0.9162750011442643  0.6242974324451924
  0.2518510694347694  0.2846768918208031  0.5185844094523758
  0.7327564485929814  0.7580330118799521  0.7123272404522801
  0.8607538228364221  0.3132780370594115  0.7047641689851418
  0.4619073212792721  0.1793071119278243  0.7026939941024983
  0.5982606667633866  0.0401084769587143  0.7403385290061186
  0.2341581503332229  0.9497221283816372  0.7030340905490372
  0.8968621672457299  0.6697578321637692  0.7282451278731988
  0.0059301387127935  0.2466624643278309  0.6852279434553241
  0.3682699742467935  0.0315601873118566  0.7090516747150957
  0.5834057057211646  0.8642614838735877  0.7172321802732554
  0.2729432715110726  0.8122829632111742  0.6962750189366355
 
  0.00000000E+00  0.00000000E+00  0.00000000E+00
  0.00000000E+00  0.00000000E+00  0.00000000E+00
  0.00000000E+00  0.00000000E+00  0.00000000E+00
  0.00000000E+00  0.00000000E+00  0.00000000E+00
  0.00000000E+00  0.00000000E+00  0.00000000E+00
  0.00000000E+00  0.00000000E+00  0.00000000E+00
  0.00000000E+00  0.00000000E+00  0.00000000E+00
  0.00000000E+00  0.00000000E+00  0.00000000E+00
  0.00000000E+00  0.00000000E+00  0.00000000E+00
  0.00000000E+00  0.00000000E+00  0.00000000E+00
  0.00000000E+00  0.00000000E+00  0.00000000E+00
  0.00000000E+00  0.00000000E+00  0.00000000E+00
  0.00000000E+00  0.00000000E+00  0.00000000E+00
  0.00000000E+00  0.00000000E+00  0.00000000E+00
  0.00000000E+00  0.00000000E+00  0.00000000E+00
  0.00000000E+00  0.00000000E+00  0.00000000E+00
  0.00000000E+00  0.00000000E+00  0.00000000E+00
  0.00000000E+00  0.00000000E+00  0.00000000E+00
  0.00000000E+00  0.00000000E+00  0.00000000E+00
  0.00000000E+00  0.00000000E+00  0.00000000E+00
  0.00000000E+00  0.00000000E+00  0.00000000E+00
  0.00000000E+00  0.00000000E+00  0.00000000E+00
  0.00000000E+00  0.00000000E+00  0.00000000E+00
  0.00000000E+00  0.00000000E+00  0.00000000E+00
  0.00000000E+00  0.00000000E+00  0.00000000E+00
  0.00000000E+00  0.00000000E+00  0.00000000E+00
  0.00000000E+00  0.00000000E+00  0.00000000E+00
  0.00000000E+00  0.00000000E+00  0.00000000E+00
  0.00000000E+00  0.00000000E+00  0.00000000E+00
  0.00000000E+00  0.00000000E+00  0.00000000E+00
  0.00000000E+00  0.00000000E+00  0.00000000E+00
  0.00000000E+00  0.00000000E+00  0.00000000E+00
  0.00000000E+00  0.00000000E+00  0.00000000E+00
  0.00000000E+00  0.00000000E+00  0.00000000E+00
  0.00000000E+00  0.00000000E+00  0.00000000E+00
  0.00000000E+00  0.00000000E+00  0.00000000E+00
  0.00000000E+00  0.00000000E+00  0.00000000E+00
  0.00000000E+00  0.00000000E+00  0.00000000E+00
  0.00000000E+00  0.00000000E+00  0.00000000E+00
  0.00000000E+00  0.00000000E+00  0.00000000E+00
  0.00000000E+00  0.00000000E+00  0.00000000E+00
  0.00000000E+00  0.00000000E+00  0.00000000E+00
  0.00000000E+00  0.00000000E+00  0.00000000E+00
  0.00000000E+00  0.00000000E+00  0.00000000E+00
  0.00000000E+00  0.00000000E+00  0.00000000E+00
  0.00000000E+00  0.00000000E+00  0.00000000E+00
  0.00000000E+00  0.00000000E+00  0.00000000E+00
  0.00000000E+00  0.00000000E+00  0.00000000E+00
  0.00000000E+00  0.00000000E+00  0.00000000E+00
  0.00000000E+00  0.00000000E+00  0.00000000E+00
  0.00000000E+00  0.00000000E+00  0.00000000E+00
  0.00000000E+00  0.00000000E+00  0.00000000E+00
  0.00000000E+00  0.00000000E+00  0.00000000E+00
  0.00000000E+00  0.00000000E+00  0.00000000E+00
  0.00000000E+00  0.00000000E+00  0.00000000E+00
  0.00000000E+00  0.00000000E+00  0.00000000E+00
  0.00000000E+00  0.00000000E+00  0.00000000E+00
  0.00000000E+00  0.00000000E+00  0.00000000E+00
  0.00000000E+00  0.00000000E+00  0.00000000E+00
  0.00000000E+00  0.00000000E+00  0.00000000E+00
  0.00000000E+00  0.00000000E+00  0.00000000E+00
  0.00000000E+00  0.00000000E+00  0.00000000E+00
  0.00000000E+00  0.00000000E+00  0.00000000E+00
  0.00000000E+00  0.00000000E+00  0.00000000E+00
  0.00000000E+00  0.00000000E+00  0.00000000E+00
  0.00000000E+00  0.00000000E+00  0.00000000E+00
  0.00000000E+00  0.00000000E+00  0.00000000E+00
  0.00000000E+00  0.00000000E+00  0.00000000E+00
  0.00000000E+00  0.00000000E+00  0.00000000E+00
  0.00000000E+00  0.00000000E+00  0.00000000E+00
  0.00000000E+00  0.00000000E+00  0.00000000E+00
  0.00000000E+00  0.00000000E+00  0.00000000E+00
  0.00000000E+00  0.00000000E+00  0.00000000E+00
  0.00000000E+00  0.00000000E+00  0.00000000E+00
  0.00000000E+00  0.00000000E+00  0.00000000E+00
  0.00000000E+00  0.00000000E+00  0.00000000E+00
  0.00000000E+00  0.00000000E+00  0.00000000E+00
  0.00000000E+00  0.00000000E+00  0.00000000E+00
  0.00000000E+00  0.00000000E+00  0.00000000E+00
  0.00000000E+00  0.00000000E+00  0.00000000E+00
  0.00000000E+00  0.00000000E+00  0.00000000E+00
  0.00000000E+00  0.00000000E+00  0.00000000E+00
  0.00000000E+00  0.00000000E+00  0.00000000E+00
  0.00000000E+00  0.00000000E+00  0.00000000E+00
  0.00000000E+00  0.00000000E+00  0.00000000E+00
  0.00000000E+00  0.00000000E+00  0.00000000E+00
  0.00000000E+00  0.00000000E+00  0.00000000E+00
  0.00000000E+00  0.00000000E+00  0.00000000E+00
  0.00000000E+00  0.00000000E+00  0.00000000E+00
  0.00000000E+00  0.00000000E+00  0.00000000E+00
  0.00000000E+00  0.00000000E+00  0.00000000E+00
  0.00000000E+00  0.00000000E+00  0.00000000E+00
  0.00000000E+00  0.00000000E+00  0.00000000E+00
  0.00000000E+00  0.00000000E+00  0.00000000E+00
  0.00000000E+00  0.00000000E+00  0.00000000E+00
  0.00000000E+00  0.00000000E+00  0.00000000E+00
  0.00000000E+00  0.00000000E+00  0.00000000E+00
  0.00000000E+00  0.00000000E+00  0.00000000E+00
  0.00000000E+00  0.00000000E+00  0.00000000E+00
  0.00000000E+00  0.00000000E+00  0.00000000E+00
  0.00000000E+00  0.00000000E+00  0.00000000E+00
  0.00000000E+00  0.00000000E+00  0.00000000E+00
  0.00000000E+00  0.00000000E+00  0.00000000E+00
  0.00000000E+00  0.00000000E+00  0.00000000E+00
  0.00000000E+00  0.00000000E+00  0.00000000E+00
  0.00000000E+00  0.00000000E+00  0.00000000E+00
  0.00000000E+00  0.00000000E+00  0.00000000E+00
  0.00000000E+00  0.00000000E+00  0.00000000E+00
  0.00000000E+00  0.00000000E+00  0.00000000E+00
  0.00000000E+00  0.00000000E+00  0.00000000E+00
  0.00000000E+00  0.00000000E+00  0.00000000E+00
  0.00000000E+00  0.00000000E+00  0.00000000E+00
  0.00000000E+00  0.00000000E+00  0.00000000E+00
  0.00000000E+00  0.00000000E+00  0.00000000E+00
  0.00000000E+00  0.00000000E+00  0.00000000E+00
  0.00000000E+00  0.00000000E+00  0.00000000E+00
  0.00000000E+00  0.00000000E+00  0.00000000E+00
  0.00000000E+00  0.00000000E+00  0.00000000E+00
  0.00000000E+00  0.00000000E+00  0.00000000E+00
  0.00000000E+00  0.00000000E+00  0.00000000E+00
  0.00000000E+00  0.00000000E+00  0.00000000E+00
  0.00000000E+00  0.00000000E+00  0.00000000E+00
  0.00000000E+00  0.00000000E+00  0.00000000E+00
  0.00000000E+00  0.00000000E+00  0.00000000E+00
  0.00000000E+00  0.00000000E+00  0.00000000E+00
  0.00000000E+00  0.00000000E+00  0.00000000E+00
  0.00000000E+00  0.00000000E+00  0.00000000E+00
  0.00000000E+00  0.00000000E+00  0.00000000E+00
  0.00000000E+00  0.00000000E+00  0.00000000E+00
  0.00000000E+00  0.00000000E+00  0.00000000E+00
  0.00000000E+00  0.00000000E+00  0.00000000E+00
  0.00000000E+00  0.00000000E+00  0.00000000E+00
  0.00000000E+00  0.00000000E+00  0.00000000E+00
  0.00000000E+00  0.00000000E+00  0.00000000E+00
  0.00000000E+00  0.00000000E+00  0.00000000E+00
  0.00000000E+00  0.00000000E+00  0.00000000E+00
  0.00000000E+00  0.00000000E+00  0.00000000E+00
  0.00000000E+00  0.00000000E+00  0.00000000E+00
  0.00000000E+00  0.00000000E+00  0.00000000E+00
  0.00000000E+00  0.00000000E+00  0.00000000E+00
  0.00000000E+00  0.00000000E+00  0.00000000E+00
  0.00000000E+00  0.00000000E+00  0.00000000E+00
  0.00000000E+00  0.00000000E+00  0.00000000E+00
  0.00000000E+00  0.00000000E+00  0.00000000E+00
  0.00000000E+00  0.00000000E+00  0.00000000E+00
  0.00000000E+00  0.00000000E+00  0.00000000E+00
  0.00000000E+00  0.00000000E+00  0.00000000E+00
  0.00000000E+00  0.00000000E+00  0.00000000E+00
  0.00000000E+00  0.00000000E+00  0.00000000E+00
  0.00000000E+00  0.00000000E+00  0.00000000E+00
  0.00000000E+00  0.00000000E+00  0.00000000E+00
  0.00000000E+00  0.00000000E+00  0.00000000E+00
  0.00000000E+00  0.00000000E+00  0.00000000E+00
  0.00000000E+00  0.00000000E+00  0.00000000E+00
  0.00000000E+00  0.00000000E+00  0.00000000E+00
  0.00000000E+00  0.00000000E+00  0.00000000E+00
  0.00000000E+00  0.00000000E+00  0.00000000E+00
  0.00000000E+00  0.00000000E+00  0.00000000E+00
  0.00000000E+00  0.00000000E+00  0.00000000E+00
  0.00000000E+00  0.00000000E+00  0.00000000E+00
  0.00000000E+00  0.00000000E+00  0.00000000E+00
  0.00000000E+00  0.00000000E+00  0.00000000E+00
  0.00000000E+00  0.00000000E+00  0.00000000E+00
  0.00000000E+00  0.00000000E+00  0.00000000E+00
  0.00000000E+00  0.00000000E+00  0.00000000E+00
  0.00000000E+00  0.00000000E+00  0.00000000E+00
  0.00000000E+00  0.00000000E+00  0.00000000E+00
  0.00000000E+00  0.00000000E+00  0.00000000E+00
  0.00000000E+00  0.00000000E+00  0.00000000E+00
  0.00000000E+00  0.00000000E+00  0.00000000E+00
  0.00000000E+00  0.00000000E+00  0.00000000E+00
  0.00000000E+00  0.00000000E+00  0.00000000E+00
  0.00000000E+00  0.00000000E+00  0.00000000E+00
  0.00000000E+00  0.00000000E+00  0.00000000E+00
  0.00000000E+00  0.00000000E+00  0.00000000E+00
  0.00000000E+00  0.00000000E+00  0.00000000E+00
  0.00000000E+00  0.00000000E+00  0.00000000E+00
  0.00000000E+00  0.00000000E+00  0.00000000E+00
  0.00000000E+00  0.00000000E+00  0.00000000E+00
  0.00000000E+00  0.00000000E+00  0.00000000E+00
  0.00000000E+00  0.00000000E+00  0.00000000E+00
  0.00000000E+00  0.00000000E+00  0.00000000E+00
  0.00000000E+00  0.00000000E+00  0.00000000E+00
  0.00000000E+00  0.00000000E+00  0.00000000E+00
  0.00000000E+00  0.00000000E+00  0.00000000E+00
  0.00000000E+00  0.00000000E+00  0.00000000E+00
  0.00000000E+00  0.00000000E+00  0.00000000E+00
  0.00000000E+00  0.00000000E+00  0.00000000E+00
  0.00000000E+00  0.00000000E+00  0.00000000E+00
  0.00000000E+00  0.00000000E+00  0.00000000E+00
  0.00000000E+00  0.00000000E+00  0.00000000E+00
  0.00000000E+00  0.00000000E+00  0.00000000E+00
  0.00000000E+00  0.00000000E+00  0.00000000E+00
  0.00000000E+00  0.00000000E+00  0.00000000E+00
  0.00000000E+00  0.00000000E+00  0.00000000E+00
  0.00000000E+00  0.00000000E+00  0.00000000E+00
  0.00000000E+00  0.00000000E+00  0.00000000E+00
  0.00000000E+00  0.00000000E+00  0.00000000E+00
  0.00000000E+00  0.00000000E+00  0.00000000E+00
  0.00000000E+00  0.00000000E+00  0.00000000E+00
  0.00000000E+00  0.00000000E+00  0.00000000E+00
  0.00000000E+00  0.00000000E+00  0.00000000E+00
  0.00000000E+00  0.00000000E+00  0.00000000E+00
  0.00000000E+00  0.00000000E+00  0.00000000E+00
  0.00000000E+00  0.00000000E+00  0.00000000E+00
  0.00000000E+00  0.00000000E+00  0.00000000E+00
  0.00000000E+00  0.00000000E+00  0.00000000E+00
  0.00000000E+00  0.00000000E+00  0.00000000E+00
  0.00000000E+00  0.00000000E+00  0.00000000E+00
  0.00000000E+00  0.00000000E+00  0.00000000E+00
  0.00000000E+00  0.00000000E+00  0.00000000E+00
  0.00000000E+00  0.00000000E+00  0.00000000E+00
  0.00000000E+00  0.00000000E+00  0.00000000E+00
  0.00000000E+00  0.00000000E+00  0.00000000E+00
  0.00000000E+00  0.00000000E+00  0.00000000E+00
  0.00000000E+00  0.00000000E+00  0.00000000E+00
  0.00000000E+00  0.00000000E+00  0.00000000E+00
  0.00000000E+00  0.00000000E+00  0.00000000E+00
  0.00000000E+00  0.00000000E+00  0.00000000E+00
  0.00000000E+00  0.00000000E+00  0.00000000E+00
  0.00000000E+00  0.00000000E+00  0.00000000E+00
  0.00000000E+00  0.00000000E+00  0.00000000E+00
  0.00000000E+00  0.00000000E+00  0.00000000E+00
  0.00000000E+00  0.00000000E+00  0.00000000E+00
  0.00000000E+00  0.00000000E+00  0.00000000E+00
  0.00000000E+00  0.00000000E+00  0.00000000E+00
