Hf  O                                   
   1.00000000000000     
    13.7225301000000002    0.0000000000000000    0.0000000000000000
     0.0000000000000000   13.7225301000000002    0.0000000000000000
     0.0000000000000000    0.0000000000000000   32.7225301000000002
   Hf   O 
    72   144
Direct
  0.1362248827505326  0.8674318530115244  0.4166419926673512
  0.8634775920518507  0.9472905656464761  0.5045582042500101
  0.0225942766102776  0.6270292756935447  0.3945197508585068
  0.8738375187958241  0.6422807334719352  0.3030733668587473
  0.0747600824243548  0.7867743823649178  0.3146695938578574
  0.4067742977386999  0.9446447000742140  0.5515467053502405
  0.6294603519176576  0.5148197354520079  0.2774755992424502
  0.6797862832746944  0.7488718431475334  0.2786741083629067
  0.0380420937555854  0.6487531119771006  0.6707501877576547
  0.2828592525475813  0.0580976344398607  0.4113559499634150
  0.9275631570040517  0.7410291544037477  0.4677958891650107
  0.2859290233621437  0.7625462908132050  0.2930066613476754
  0.1017141309847602  0.5287797796419227  0.3095085958343233
  0.3439891063416027  0.1688974532790510  0.5236717227505494
  0.5233710021538585  0.9788617992092199  0.6682535510304390
  0.2703089366534215  0.6398162014119109  0.6536614571107151
  0.5519297663536378  0.3684229324229733  0.5417584124346178
  0.4648562957920248  0.9817891360786390  0.3313698961765255
  0.2837133940148888  0.6602598701606155  0.3859683453061749
  0.8959610680689138  0.7208097805154736  0.5667703054230984
  0.8372982804186861  0.4310611117959056  0.3153643524806000
  0.9162945903887660  0.0966460785961942  0.5749059383753092
  0.0116742983313145  0.3565300287031121  0.3900626623074430
  0.9162510392170091  0.4969861721775644  0.5944062163160027
  0.1391094304267071  0.5383917663753905  0.5848948091157666
  0.1774465507518670  0.2491217791990508  0.4456301665570663
  0.1128043474867937  0.2891964406017493  0.5450243252901359
  0.7469685417181466  0.5578143854098059  0.5145858608576290
  0.3417430646914141  0.1413210431024652  0.6373962289628423
  0.6593532930358350  0.1520825018311811  0.6142404823548588
  0.5217433259965105  0.2966659636632656  0.6803543294709016
  0.2657298271708299  0.4500351443841950  0.4953514699329986
  0.3064791466013190  0.3569477604424804  0.6079645070928450
  0.8615430910852098  0.9811718761377790  0.4082549417030705
  0.1602589867915043  0.0446394709317062  0.5075308783781693
  0.8121312755632033  0.7005249365249213  0.6698786242551620
  0.4916387852928210  0.6434499087635217  0.3469339165609711
  0.0119737985198540  0.4712817002046421  0.5000523954108900
  0.8796802193484083  0.9226061635261118  0.3024546211802672
  0.4156650669205106  0.8177279841074565  0.4417846330149331
  0.4266156591101478  0.3343500072301211  0.4471744420722814
  0.6004453544720860  0.8052089114067371  0.5034162183359641
  0.3409849611099247  0.7081303437033242  0.5374198459929644
  0.1442194310587581  0.8234852111312634  0.5777519236468081
  0.6818912062918159  0.2334388454933389  0.4324865174560131
  0.5664560234058058  0.0042391841142546  0.4184997825385963
  0.3072445584912771  0.9105613316429668  0.6386303771723760
  0.4941682865756150  0.5592862269110270  0.4809935395880842
  0.5919898187528077  0.1501737757044594  0.5188049174049851
  0.0684112772452750  0.0514097151278179  0.3619893468145889
  0.8103008770948463  0.4204843201528377  0.4319572399929896
  0.6965445507518737  0.9275674940014156  0.5772196207410261
  0.4926111331474274  0.7581005770750835  0.6575218810026300
  0.6844265679267849  0.8447563575640800  0.3656604035613711
  0.2498074010011564  0.0024820945120538  0.2980987301286220
  0.4512898375489769  0.5650414064077438  0.5989939207589714
  0.6548018632275756  0.2862691907538348  0.2891972673552416
  0.6604694433249492  0.6752635642602982  0.5982855602510568
  0.9986968184333520  0.8979144467508959  0.6475514292921218
  0.7470072027489891  0.6345958651175110  0.3927949526715580
  0.2935567867715463  0.4244947281288631  0.3702984883267320
  0.6885244107495865  0.0480210126884515  0.2705796756096035
  0.5688479814933984  0.4245065994561514  0.3742101600459691
  0.4335229649922709  0.2174729734533187  0.3617403180778211
  0.6819245018391555  0.4531220776164702  0.6305658641408627
  0.1613071640313848  0.6679437600759783  0.4766209671409030
  0.8492564139767822  0.2904248143267552  0.6406897717648476
  0.8551905596872160  0.1974512988364054  0.3422994946251308
  0.0823855548508448  0.1813298477113605  0.6341169328174985
  0.8083872053743519  0.3283018930475166  0.5310384429044106
  0.9397195986151559  0.1866072368147655  0.4791796325209106
  0.1616690453522622  0.2560204105264745  0.3298309837996740
  0.3049078321207332  0.2875419471495491  0.3352740561066057
  0.9328005773464554  0.8252982027867475  0.5211333712754609
  0.3607541713503579  0.8901635566138424  0.3094384523532057
  0.5473615467785109  0.8904712284317711  0.4570544033948494
  0.0492836394943978  0.4280501513760342  0.5617265639983060
  0.0422195798238860  0.4943561175309341  0.3669441822579884
  0.0039846590304364  0.0492205000962187  0.6243731391706149
  0.3079387273521590  0.6092548858889444  0.4850707792522400
  0.1888334083644878  0.9733298032896940  0.4523524930603600
  0.0099005247347677  0.2449565715146989  0.3438245927785815
  0.3162828839136793  0.0528270771050288  0.2561267181627187
  0.1275574806745183  0.9330397438880169  0.5425896994007502
  0.4655781867130671  0.8897228461341840  0.6256527298762791
  0.7055833041954003  0.9685018427856278  0.4032410368584678
  0.3037511142422318  0.0152963888652664  0.5204148283292582
  0.5141939779334379  0.2980164269463828  0.7342527229184554
  0.0499743843195191  0.7891706787373138  0.6788216322787832
  0.7585786501586824  0.5619828108919904  0.4448067388749948
  0.8835851285273080  0.3424725878191950  0.5862661044188400
  0.3572168392524162  0.2233128918564731  0.5821590219155865
  0.8369169573466522  0.9729502068356837  0.5669384134260085
  0.2629952254942509  0.7730668542790369  0.4355206382809200
  0.0203018350088016  0.9381153613447708  0.3208978167787038
  0.7217782525812737  0.8924662791354550  0.5118152551349766
  0.3869418166754954  0.5550197080282899  0.3773878285710808
  0.9366113551046666  0.7838709015859919  0.2867270942373423
  0.8246993726769958  0.2724807700490715  0.4509223812659755
  0.0719194749101533  0.7856550821857127  0.4616356930969943
  0.1467679943033815  0.6743855968347177  0.6166359098305207
  0.8692613397515672  0.3522613978860250  0.3693036553252256
  0.5086693674180509  0.7053055060469333  0.4655821335629895
  0.7897602758420135  0.5903107702970232  0.5750901852901862
  0.2046273362631936  0.1643862144954866  0.5448368000796151
  0.5485298122957403  0.2851240367657155  0.3301800021180128
  0.9544545848441004  0.5037672942624738  0.2896111414666578
  0.6517636723411258  0.6807931927054156  0.5283798961452035
  0.5401092903720723  0.2647908928536324  0.4157603512433283
  0.9991608078359562  0.6113505252441769  0.5600345929173685
  0.9630474330154328  0.3190641817085691  0.5092235558925893
  0.4783318054185628  0.2581800288536655  0.5040058859859187
  0.4168930407972411  0.4359830673661236  0.4989590372591763
  0.8926124465512544  0.6852509986737090  0.4107342033344352
  0.4200876547530115  0.7352485988705979  0.3901515973022995
  0.5689637040109119  0.1372462811987987  0.6767881039838812
  0.7764677940880915  0.5427980288217071  0.2778629484862734
  0.8672924912431981  0.8704525491273714  0.4490875314859863
  0.5848814101737148  0.2360600537448860  0.5725597948320740
  0.6668636965377459  0.2709738367764274  0.4990915131378273
  0.8107385001457104  0.1572192433476900  0.6133359080170848
  0.1787949481875941  0.8676027237991875  0.2813152636084126
  0.3468860146029797  0.0784787689193109  0.3454411678601659
  0.7220619494129110  0.5938433036886934  0.6489507372627870
  0.3144991193285023  0.6352827055334771  0.5890074246829258
  0.5209510639653061  0.5103424314101517  0.3179224057323609
  0.8864681918404500  0.9171032239724752  0.6878816615589756
  0.1942707985322372  0.7337427033552686  0.5304951470835420
  0.4690009969662867  0.0745497446166894  0.5305572584310099
  0.1315720681619794  0.3743945833941282  0.4833742465075019
  0.1939239131473300  0.9632427121076290  0.3720698571316206
  0.6417525348669741  0.7526894615891706  0.6523631486091972
  0.6708197335414141  0.0721444824589668  0.5588977743807533
  0.2231249977367753  0.5450312577583958  0.3462682900882612
  0.3972794474461878  0.6761200112435404  0.3029412767086868
  0.4427111021624057  0.4150653906250312  0.5836397812973004
  0.0173718785936430  0.9595835418495682  0.4086732705475384
  0.9758311936114907  0.0500889442809864  0.5179826982638289
  0.2544203462888959  0.4916695512797276  0.6274409313597431
  0.5614180530807928  0.9986962763056653  0.2888519061938410
  0.8068685084785443  0.2886124008540349  0.2955470249216106
  0.0175186870126467  0.6108011535760411  0.4661665927476832
  0.0204736474307836  0.2489555168692590  0.4300562988101362
  0.5120565177019785  0.7075568152441747  0.5985553307639648
  0.4281094371962268  0.3687049171220593  0.3782791813424851
  0.2583208509961636  0.1302034331916815  0.4661467209183598
  0.8444775481628213  0.1832223656546148  0.5305515276394885
  0.1687109940194702  0.2913767284139439  0.6082576221178186
  0.0240113857656823  0.2000263410002034  0.5766793310680853
  0.9079165251036940  0.6631265092177188  0.6271305150605571
  0.7401972228840776  0.8889079979522023  0.2758404070975971
  0.7609797797770810  0.7879400076088885  0.5860996797265159
  0.5103706237426309  0.1424095582538740  0.6372787029944149
  0.8432553034025219  0.6707710524354979  0.5072033543184489
  0.3077602013514777  0.8397155716098368  0.5794334211384040
  0.3789735843937336  0.0194751263237976  0.6751377331688886
  0.3542438472579335  0.2087363362762318  0.4137203452795504
  0.6186647553201610  0.1068378058977686  0.4583338433151383
  0.1486610173377017  0.5444351432745194  0.5147509236449395
  0.5140560696591336  0.4593395278647279  0.4337502415732928
  0.1394894970582854  0.3863946735864943  0.3027559198026069
  0.5472622721037297  0.9039022705455366  0.3701037634389266
  0.8368741765124881  0.5490739659712247  0.3556502114147619
  0.5964607553762988  0.5386913130948585  0.5936648859771125
  0.0108235917414987  0.6490944335262441  0.3308338773632826
  0.6949461266678441  0.3898084823784416  0.5684262119490811
  0.2310824955142792  0.7589413780292915  0.3479634505197140
  0.8803206039868243  0.4781393320857816  0.5310381266243596
  0.8543573459998584  0.0637392115932087  0.4582920418658247
  0.3467282284881534  0.0246704823181005  0.5983492103688519
  0.6863654010861424  0.4212397745417604  0.3231412819367847
  0.7489295764262778  0.1812610713679348  0.3809978011225610
  0.5188945078912397  0.0926310214905044  0.3720291896541781
  0.9990681737980438  0.8181480231847473  0.5945184692601444
  0.3732237465347055  0.2852899822012844  0.6573312563135758
  0.3981515952761754  0.9628968680990084  0.4206942397198858
  0.6148121547104211  0.5743476939175096  0.3786363518357376
  0.6544566243041317  0.1764981293629830  0.2507260434131382
  0.6903870905067393  0.7606225839663807  0.4118385402574773
  0.8295513882872285  0.8940041615364223  0.3561920276110513
  0.9571572005035804  0.4427908213924283  0.4385178138019228
  0.8512936486651626  0.8506356991723365  0.6546229226025844
  0.6010427100541378  0.4931396312928058  0.5108087396849541
  0.0382450806200652  0.5179500888734765  0.6303490224705968
  0.4241919448553730  0.6142580530646526  0.6579331471382801
  0.6166562233485635  0.6443692857831920  0.2480885513447859
  0.5681287552787992  0.4294819334720188  0.6638722642034054
  0.5887762224127684  0.7550561721866771  0.3265038100248958
  0.7644688594740714  0.7201971334592656  0.3330958238475006
  0.6882743744252195  0.3729006688868921  0.4047166565703435
  0.7606956388265900  0.4217122639531468  0.4875133318904687
  0.2959885358517695  0.4204781590287681  0.4321498615064385
  0.9101803865014375  0.6477113939426360  0.7051019362913422
  0.5239049347098899  0.8638449187903561  0.7007012953854996
  0.8265997843085700  0.0654979407524792  0.2964256738633395
  0.1636596523160847  0.1475195823942599  0.3930932064577348
  0.2070084605574962  0.1256622706198698  0.6551604026065760
  0.5600887075672958  0.8849217947688075  0.5522545159284959
  0.1635440916954849  0.3374874656604447  0.3863705292286213
  0.0903247254977160  0.1809614582062693  0.4903083622381601
  0.2390071137786052  0.4041660993392568  0.5534897105317782
  0.9760224841364931  0.2477466866630849  0.6639780135419571
  0.0619660381119687  0.7723346343110578  0.3777986401210924
  0.9226800712717775  0.0814018792296025  0.3681847819956658
  0.6475769978991650  0.9976139753336071  0.6296744711314091
  0.4490056421661137  0.6066768979237480  0.5376290023600490
  0.8311447597770893  0.4380877855601284  0.6452012584855282
  0.1635626581181882  0.6137774209185949  0.4174815732632027
  0.4010452836328611  0.8278151638105911  0.5074421716952315
  0.1685392205227458  0.6153595988607776  0.6940924315658563
  0.3303331561462102  0.7784258674793492  0.6640672957807894
  0.1575594665534297  0.6701486059840462  0.2836926727634861
  0.1443213006996231  0.1123665465048731  0.3117199555095311
  0.6940866914084367  0.2834088997149493  0.6470918493473405
  0.1620601893930811  0.9031448411591327  0.6306420036149447
  0.2967941015119990  0.2940849359313304  0.4872104828800445
 
  0.00000000E+00  0.00000000E+00  0.00000000E+00
  0.00000000E+00  0.00000000E+00  0.00000000E+00
  0.00000000E+00  0.00000000E+00  0.00000000E+00
  0.00000000E+00  0.00000000E+00  0.00000000E+00
  0.00000000E+00  0.00000000E+00  0.00000000E+00
  0.00000000E+00  0.00000000E+00  0.00000000E+00
  0.00000000E+00  0.00000000E+00  0.00000000E+00
  0.00000000E+00  0.00000000E+00  0.00000000E+00
  0.00000000E+00  0.00000000E+00  0.00000000E+00
  0.00000000E+00  0.00000000E+00  0.00000000E+00
  0.00000000E+00  0.00000000E+00  0.00000000E+00
  0.00000000E+00  0.00000000E+00  0.00000000E+00
  0.00000000E+00  0.00000000E+00  0.00000000E+00
  0.00000000E+00  0.00000000E+00  0.00000000E+00
  0.00000000E+00  0.00000000E+00  0.00000000E+00
  0.00000000E+00  0.00000000E+00  0.00000000E+00
  0.00000000E+00  0.00000000E+00  0.00000000E+00
  0.00000000E+00  0.00000000E+00  0.00000000E+00
  0.00000000E+00  0.00000000E+00  0.00000000E+00
  0.00000000E+00  0.00000000E+00  0.00000000E+00
  0.00000000E+00  0.00000000E+00  0.00000000E+00
  0.00000000E+00  0.00000000E+00  0.00000000E+00
  0.00000000E+00  0.00000000E+00  0.00000000E+00
  0.00000000E+00  0.00000000E+00  0.00000000E+00
  0.00000000E+00  0.00000000E+00  0.00000000E+00
  0.00000000E+00  0.00000000E+00  0.00000000E+00
  0.00000000E+00  0.00000000E+00  0.00000000E+00
  0.00000000E+00  0.00000000E+00  0.00000000E+00
  0.00000000E+00  0.00000000E+00  0.00000000E+00
  0.00000000E+00  0.00000000E+00  0.00000000E+00
  0.00000000E+00  0.00000000E+00  0.00000000E+00
  0.00000000E+00  0.00000000E+00  0.00000000E+00
  0.00000000E+00  0.00000000E+00  0.00000000E+00
  0.00000000E+00  0.00000000E+00  0.00000000E+00
  0.00000000E+00  0.00000000E+00  0.00000000E+00
  0.00000000E+00  0.00000000E+00  0.00000000E+00
  0.00000000E+00  0.00000000E+00  0.00000000E+00
  0.00000000E+00  0.00000000E+00  0.00000000E+00
  0.00000000E+00  0.00000000E+00  0.00000000E+00
  0.00000000E+00  0.00000000E+00  0.00000000E+00
  0.00000000E+00  0.00000000E+00  0.00000000E+00
  0.00000000E+00  0.00000000E+00  0.00000000E+00
  0.00000000E+00  0.00000000E+00  0.00000000E+00
  0.00000000E+00  0.00000000E+00  0.00000000E+00
  0.00000000E+00  0.00000000E+00  0.00000000E+00
  0.00000000E+00  0.00000000E+00  0.00000000E+00
  0.00000000E+00  0.00000000E+00  0.00000000E+00
  0.00000000E+00  0.00000000E+00  0.00000000E+00
  0.00000000E+00  0.00000000E+00  0.00000000E+00
  0.00000000E+00  0.00000000E+00  0.00000000E+00
  0.00000000E+00  0.00000000E+00  0.00000000E+00
  0.00000000E+00  0.00000000E+00  0.00000000E+00
  0.00000000E+00  0.00000000E+00  0.00000000E+00
  0.00000000E+00  0.00000000E+00  0.00000000E+00
  0.00000000E+00  0.00000000E+00  0.00000000E+00
  0.00000000E+00  0.00000000E+00  0.00000000E+00
  0.00000000E+00  0.00000000E+00  0.00000000E+00
  0.00000000E+00  0.00000000E+00  0.00000000E+00
  0.00000000E+00  0.00000000E+00  0.00000000E+00
  0.00000000E+00  0.00000000E+00  0.00000000E+00
  0.00000000E+00  0.00000000E+00  0.00000000E+00
  0.00000000E+00  0.00000000E+00  0.00000000E+00
  0.00000000E+00  0.00000000E+00  0.00000000E+00
  0.00000000E+00  0.00000000E+00  0.00000000E+00
  0.00000000E+00  0.00000000E+00  0.00000000E+00
  0.00000000E+00  0.00000000E+00  0.00000000E+00
  0.00000000E+00  0.00000000E+00  0.00000000E+00
  0.00000000E+00  0.00000000E+00  0.00000000E+00
  0.00000000E+00  0.00000000E+00  0.00000000E+00
  0.00000000E+00  0.00000000E+00  0.00000000E+00
  0.00000000E+00  0.00000000E+00  0.00000000E+00
  0.00000000E+00  0.00000000E+00  0.00000000E+00
  0.00000000E+00  0.00000000E+00  0.00000000E+00
  0.00000000E+00  0.00000000E+00  0.00000000E+00
  0.00000000E+00  0.00000000E+00  0.00000000E+00
  0.00000000E+00  0.00000000E+00  0.00000000E+00
  0.00000000E+00  0.00000000E+00  0.00000000E+00
  0.00000000E+00  0.00000000E+00  0.00000000E+00
  0.00000000E+00  0.00000000E+00  0.00000000E+00
  0.00000000E+00  0.00000000E+00  0.00000000E+00
  0.00000000E+00  0.00000000E+00  0.00000000E+00
  0.00000000E+00  0.00000000E+00  0.00000000E+00
  0.00000000E+00  0.00000000E+00  0.00000000E+00
  0.00000000E+00  0.00000000E+00  0.00000000E+00
  0.00000000E+00  0.00000000E+00  0.00000000E+00
  0.00000000E+00  0.00000000E+00  0.00000000E+00
  0.00000000E+00  0.00000000E+00  0.00000000E+00
  0.00000000E+00  0.00000000E+00  0.00000000E+00
  0.00000000E+00  0.00000000E+00  0.00000000E+00
  0.00000000E+00  0.00000000E+00  0.00000000E+00
  0.00000000E+00  0.00000000E+00  0.00000000E+00
  0.00000000E+00  0.00000000E+00  0.00000000E+00
  0.00000000E+00  0.00000000E+00  0.00000000E+00
  0.00000000E+00  0.00000000E+00  0.00000000E+00
  0.00000000E+00  0.00000000E+00  0.00000000E+00
  0.00000000E+00  0.00000000E+00  0.00000000E+00
  0.00000000E+00  0.00000000E+00  0.00000000E+00
  0.00000000E+00  0.00000000E+00  0.00000000E+00
  0.00000000E+00  0.00000000E+00  0.00000000E+00
  0.00000000E+00  0.00000000E+00  0.00000000E+00
  0.00000000E+00  0.00000000E+00  0.00000000E+00
  0.00000000E+00  0.00000000E+00  0.00000000E+00
  0.00000000E+00  0.00000000E+00  0.00000000E+00
  0.00000000E+00  0.00000000E+00  0.00000000E+00
  0.00000000E+00  0.00000000E+00  0.00000000E+00
  0.00000000E+00  0.00000000E+00  0.00000000E+00
  0.00000000E+00  0.00000000E+00  0.00000000E+00
  0.00000000E+00  0.00000000E+00  0.00000000E+00
  0.00000000E+00  0.00000000E+00  0.00000000E+00
  0.00000000E+00  0.00000000E+00  0.00000000E+00
  0.00000000E+00  0.00000000E+00  0.00000000E+00
  0.00000000E+00  0.00000000E+00  0.00000000E+00
  0.00000000E+00  0.00000000E+00  0.00000000E+00
  0.00000000E+00  0.00000000E+00  0.00000000E+00
  0.00000000E+00  0.00000000E+00  0.00000000E+00
  0.00000000E+00  0.00000000E+00  0.00000000E+00
  0.00000000E+00  0.00000000E+00  0.00000000E+00
  0.00000000E+00  0.00000000E+00  0.00000000E+00
  0.00000000E+00  0.00000000E+00  0.00000000E+00
  0.00000000E+00  0.00000000E+00  0.00000000E+00
  0.00000000E+00  0.00000000E+00  0.00000000E+00
  0.00000000E+00  0.00000000E+00  0.00000000E+00
  0.00000000E+00  0.00000000E+00  0.00000000E+00
  0.00000000E+00  0.00000000E+00  0.00000000E+00
  0.00000000E+00  0.00000000E+00  0.00000000E+00
  0.00000000E+00  0.00000000E+00  0.00000000E+00
  0.00000000E+00  0.00000000E+00  0.00000000E+00
  0.00000000E+00  0.00000000E+00  0.00000000E+00
  0.00000000E+00  0.00000000E+00  0.00000000E+00
  0.00000000E+00  0.00000000E+00  0.00000000E+00
  0.00000000E+00  0.00000000E+00  0.00000000E+00
  0.00000000E+00  0.00000000E+00  0.00000000E+00
  0.00000000E+00  0.00000000E+00  0.00000000E+00
  0.00000000E+00  0.00000000E+00  0.00000000E+00
  0.00000000E+00  0.00000000E+00  0.00000000E+00
  0.00000000E+00  0.00000000E+00  0.00000000E+00
  0.00000000E+00  0.00000000E+00  0.00000000E+00
  0.00000000E+00  0.00000000E+00  0.00000000E+00
  0.00000000E+00  0.00000000E+00  0.00000000E+00
  0.00000000E+00  0.00000000E+00  0.00000000E+00
  0.00000000E+00  0.00000000E+00  0.00000000E+00
  0.00000000E+00  0.00000000E+00  0.00000000E+00
  0.00000000E+00  0.00000000E+00  0.00000000E+00
  0.00000000E+00  0.00000000E+00  0.00000000E+00
  0.00000000E+00  0.00000000E+00  0.00000000E+00
  0.00000000E+00  0.00000000E+00  0.00000000E+00
  0.00000000E+00  0.00000000E+00  0.00000000E+00
  0.00000000E+00  0.00000000E+00  0.00000000E+00
  0.00000000E+00  0.00000000E+00  0.00000000E+00
  0.00000000E+00  0.00000000E+00  0.00000000E+00
  0.00000000E+00  0.00000000E+00  0.00000000E+00
  0.00000000E+00  0.00000000E+00  0.00000000E+00
  0.00000000E+00  0.00000000E+00  0.00000000E+00
  0.00000000E+00  0.00000000E+00  0.00000000E+00
  0.00000000E+00  0.00000000E+00  0.00000000E+00
  0.00000000E+00  0.00000000E+00  0.00000000E+00
  0.00000000E+00  0.00000000E+00  0.00000000E+00
  0.00000000E+00  0.00000000E+00  0.00000000E+00
  0.00000000E+00  0.00000000E+00  0.00000000E+00
  0.00000000E+00  0.00000000E+00  0.00000000E+00
  0.00000000E+00  0.00000000E+00  0.00000000E+00
  0.00000000E+00  0.00000000E+00  0.00000000E+00
  0.00000000E+00  0.00000000E+00  0.00000000E+00
  0.00000000E+00  0.00000000E+00  0.00000000E+00
  0.00000000E+00  0.00000000E+00  0.00000000E+00
  0.00000000E+00  0.00000000E+00  0.00000000E+00
  0.00000000E+00  0.00000000E+00  0.00000000E+00
  0.00000000E+00  0.00000000E+00  0.00000000E+00
  0.00000000E+00  0.00000000E+00  0.00000000E+00
  0.00000000E+00  0.00000000E+00  0.00000000E+00
  0.00000000E+00  0.00000000E+00  0.00000000E+00
  0.00000000E+00  0.00000000E+00  0.00000000E+00
  0.00000000E+00  0.00000000E+00  0.00000000E+00
  0.00000000E+00  0.00000000E+00  0.00000000E+00
  0.00000000E+00  0.00000000E+00  0.00000000E+00
  0.00000000E+00  0.00000000E+00  0.00000000E+00
  0.00000000E+00  0.00000000E+00  0.00000000E+00
  0.00000000E+00  0.00000000E+00  0.00000000E+00
  0.00000000E+00  0.00000000E+00  0.00000000E+00
  0.00000000E+00  0.00000000E+00  0.00000000E+00
  0.00000000E+00  0.00000000E+00  0.00000000E+00
  0.00000000E+00  0.00000000E+00  0.00000000E+00
  0.00000000E+00  0.00000000E+00  0.00000000E+00
  0.00000000E+00  0.00000000E+00  0.00000000E+00
  0.00000000E+00  0.00000000E+00  0.00000000E+00
  0.00000000E+00  0.00000000E+00  0.00000000E+00
  0.00000000E+00  0.00000000E+00  0.00000000E+00
  0.00000000E+00  0.00000000E+00  0.00000000E+00
  0.00000000E+00  0.00000000E+00  0.00000000E+00
  0.00000000E+00  0.00000000E+00  0.00000000E+00
  0.00000000E+00  0.00000000E+00  0.00000000E+00
  0.00000000E+00  0.00000000E+00  0.00000000E+00
  0.00000000E+00  0.00000000E+00  0.00000000E+00
  0.00000000E+00  0.00000000E+00  0.00000000E+00
  0.00000000E+00  0.00000000E+00  0.00000000E+00
  0.00000000E+00  0.00000000E+00  0.00000000E+00
  0.00000000E+00  0.00000000E+00  0.00000000E+00
  0.00000000E+00  0.00000000E+00  0.00000000E+00
  0.00000000E+00  0.00000000E+00  0.00000000E+00
  0.00000000E+00  0.00000000E+00  0.00000000E+00
  0.00000000E+00  0.00000000E+00  0.00000000E+00
  0.00000000E+00  0.00000000E+00  0.00000000E+00
  0.00000000E+00  0.00000000E+00  0.00000000E+00
  0.00000000E+00  0.00000000E+00  0.00000000E+00
  0.00000000E+00  0.00000000E+00  0.00000000E+00
  0.00000000E+00  0.00000000E+00  0.00000000E+00
  0.00000000E+00  0.00000000E+00  0.00000000E+00
  0.00000000E+00  0.00000000E+00  0.00000000E+00
  0.00000000E+00  0.00000000E+00  0.00000000E+00
  0.00000000E+00  0.00000000E+00  0.00000000E+00
  0.00000000E+00  0.00000000E+00  0.00000000E+00
  0.00000000E+00  0.00000000E+00  0.00000000E+00
  0.00000000E+00  0.00000000E+00  0.00000000E+00
  0.00000000E+00  0.00000000E+00  0.00000000E+00
  0.00000000E+00  0.00000000E+00  0.00000000E+00
  0.00000000E+00  0.00000000E+00  0.00000000E+00
