Hf  O  F  H                             
   1.00000000000000     
    13.7225301000000002    0.0000000000000000    0.0000000000000000
     0.0000000000000000   13.7225301000000002    0.0000000000000000
     0.0000000000000000    0.0000000000000000   32.7225301000000002
   Hf   O    F    H 
    72   144     3     3
Direct
  0.1425294663254758  0.8641038315216443  0.4154932254752237
  0.8715635951103152  0.9500362307212663  0.5047571856858107
  0.0180044647877834  0.6291665933102660  0.3962078997773339
  0.8667839568349460  0.6437890313308595  0.3074833753554262
  0.0712649699059189  0.7830408902572444  0.3169407126301000
  0.3922838840203816  0.9448040546601605  0.5566923416476117
  0.6321453412366113  0.5195895862594272  0.2774073973059928
  0.6640959443743690  0.7720214574959469  0.2857328726342795
  0.0476743235360584  0.6474568068840474  0.6693277809199198
  0.2883638599414865  0.0590636615340822  0.4147636055172335
  0.9261268050938395  0.7391814637326383  0.4698164083166226
  0.2873795078803346  0.7512456166026783  0.3082293288288516
  0.1008705708348535  0.5220559428766376  0.3152688221389242
  0.3269456139334158  0.1569313512587618  0.5305102037706976
  0.5295215341468478  0.9930776644873915  0.6632609902109957
  0.2819715805285831  0.6283658424534433  0.6578002655285934
  0.5581276175703762  0.3872374246902773  0.5358483855930599
  0.4784773136493183  0.9688857236655760  0.3224415126748951
  0.2914970675507170  0.6335126472820064  0.3979967249527608
  0.8980744091514328  0.7221457307410297  0.5677091835759147
  0.8373778727795853  0.4266078188467847  0.3137018233717596
  0.9133596908375367  0.1040050477201959  0.5775196733815942
  0.0084924536382569  0.3535246555326205  0.3904546187136319
  0.9262256272797129  0.5059205537032835  0.5952389488513827
  0.1476892003345672  0.5637596676000005  0.5750431797779052
  0.1727956410852126  0.2509176643370985  0.4467742036999354
  0.1140567860036421  0.2892901666488673  0.5422224628568563
  0.7459337609220055  0.5478725563151394  0.5164004109318713
  0.3486573362451839  0.1528128797210265  0.6394707949826188
  0.6599396617629438  0.1574668589319098  0.6055773371625299
  0.5389035236930912  0.3193188676450898  0.6714216401492755
  0.2734871205460664  0.4418615447032114  0.4967758266260708
  0.3169840975308532  0.3650304985395591  0.6055428216645780
  0.8614907115886450  0.9778071011503289  0.4082358739770656
  0.1484609293568535  0.0375690890037950  0.5090676964158860
  0.7818116899056445  0.7390184684885243  0.6556370031656101
  0.4917470103603487  0.6355682460129997  0.3513001583070944
  0.0187156686147901  0.4746561005504356  0.4969530067131773
  0.8840750844693335  0.9284418703061053  0.3081534892465697
  0.4147303633810940  0.8139817496241544  0.4497437214036091
  0.4540248824874928  0.3104703534201934  0.4466977022547505
  0.6334922335984856  0.7969475714832300  0.4898399637018244
  0.3610063095238459  0.7109796055949994  0.5534558990953535
  0.1468485399788768  0.8185268965171879  0.5804013620555134
  0.6891335640886541  0.2182362369463291  0.4223713691532173
  0.5540500861328317  0.0018593137504053  0.4177307962343463
  0.2917375978104464  0.9321561562314223  0.6463423216884521
  0.4783104300105991  0.5564551310566710  0.4720771281858017
  0.5680839419306559  0.1544033849637686  0.5140004922101831
  0.0680163430985683  0.0513746057455224  0.3609388813439052
  0.8044328595954096  0.4103430430994358  0.4363065327342988
  0.6972767157635276  0.9294546166336674  0.5738611542983312
  0.4935812825242469  0.7765232943186607  0.6555008071904257
  0.6818648673638126  0.8364906916085081  0.3763630842939354
  0.2659580643434206  0.9908186310618812  0.3104763635484399
  0.4600778591015798  0.5456607741921095  0.6154579913060215
  0.6528695536062128  0.2817402148079808  0.2846907020537183
  0.6358969900525734  0.6999385851756496  0.5836585404323359
 -0.0006371301295694  0.9009477312596117  0.6477882463419795
  0.7463042083530828  0.6262311236174138  0.3961511068605840
  0.2976239794943774  0.4059006311687736  0.3758760196235958
  0.6931323437455165  0.0213833731623186  0.2682297663218132
  0.5701776032698449  0.4141441406114884  0.3713334332953117
  0.4388250805542454  0.2033955002255989  0.3590705249250856
  0.6888001724587715  0.4868149952026207  0.6208009220419187
  0.1630203912920932  0.6776867218890895  0.4775835236496208
  0.8333229293907759  0.3073472927593965  0.6479839855938487
  0.8619384006498901  0.1863066239098100  0.3343596803038229
  0.0966237708459780  0.1809762179323131  0.6265720669068064
  0.8316823679260722  0.3361312859092292  0.5381804021834712
  0.9384776176907844  0.1859126862171097  0.4797754205556842
  0.1631435760712291  0.2466879127695452  0.3319877625452606
  0.3047585302232799  0.2791975118465390  0.3372176627613593
  0.9334837894919482  0.8254272065700030  0.5222420178231030
  0.3664601590535185  0.8747168285327327  0.3256243550730522
  0.5449256113881369  0.8931144296919050  0.4613338738422320
  0.0617904080642085  0.4361082896865411  0.5566075866245490
  0.0387345964053415  0.4931656456468534  0.3711342476195086
  0.0071935462700427  0.0558469504445069  0.6219035264527939
  0.3172000222167381  0.5608719157279700  0.4551469745344767
  0.1874845913922149  0.9727142294642624  0.4519931498369125
  0.0147914788146289  0.2100217315370863  0.3447234028492693
  0.3870018774029507  0.0288163835075998  0.2811449072177177
  0.1257922466390871  0.9135249053873028  0.5375797229879612
  0.4575568456098806  0.9042879064938270  0.6229574454579355
  0.7028632810030231  0.9642991930807839  0.4094515327318401
  0.2945593695408189  0.0080379108870777  0.5217814473112740
  0.5568941264965419  0.3221452833808331  0.7247558722613672
  0.0333403688181769  0.7880950329333961  0.6809344705437346
  0.7619363169582086  0.5512593654211241  0.4484937432515027
  0.8946708666540479  0.3565844108365654  0.5924092569453089
  0.3570412303269428  0.2266387072505459  0.5837011407547348
  0.8374207774922193  0.9802190560948211  0.5659288398255902
  0.2639123591899571  0.7678508954356539  0.4458702702369571
  0.0301055946966615  0.9353932557864832  0.3197045527444655
  0.7317512877293606  0.9020808648912877  0.5086084063148745
  0.3924068514883745  0.5352729454666433  0.3775760537475655
  0.9346522333244999  0.7833887349573810  0.2917918469611622
  0.8184792927094519  0.2601949495932027  0.4485737365634400
  0.0715413417420853  0.7881352820707895  0.4624106954595714
  0.1583334553458382  0.6815146710776299  0.6198843503523354
  0.8794237467123095  0.3376338721766007  0.3620732249104994
  0.5137382061155537  0.7052408532493681  0.4686205018986210
  0.7914804237032388  0.5846723591512939  0.5763972943107691
  0.1824880306935695  0.1400705519227898  0.5540698234938735
  0.5466547681113356  0.2815595866682938  0.3244523473343539
  0.9562359878806470  0.4991379263408906  0.2923133793062141
  0.6638355161019258  0.6770380179902957  0.5228600404568126
  0.5540199831972797  0.2537081017947198  0.4035817664308221
  0.0097219659372247  0.6216173940110864  0.5581624725256740
  0.9647605572876906  0.3221422659711780  0.5078934049582030
  0.4348408040368491  0.2090872885769982  0.4941503136883524
  0.4257974864513510  0.4132464293587323  0.4977707828363930
  0.8871333126190717  0.6838474468379002  0.4128978069770529
  0.4206441961179103  0.7170084566113223  0.3989744915221155
  0.5688325551479946  0.1552982523175645  0.6648080808251182
  0.7790880830858501  0.5455796138993363  0.2781299074787598
  0.8734411341777032  0.8705982725229181  0.4492149373140155
  0.5956636067892823  0.2480558236733589  0.5625027124459779
  0.5884382017486633  0.2948827946764563  0.4855721812291506
  0.8090098330884092  0.1739535382615697  0.6142009938641539
  0.1936354981327997  0.8620834015262582  0.2896719622112204
  0.3448928622303341  0.0722351450055543  0.3543449070680060
  0.6908341533470044  0.6279681484650905  0.6392115843069075
  0.3166947683647819  0.6158165010131754  0.5965778300197832
  0.5270685428895959  0.5076405898628812  0.3188639484647333
  0.8820107222259431  0.9408417500502086  0.6823037300278012
  0.2066112653437220  0.7087881027210310  0.5388643729163037
  0.4667721498139732  0.0656564239302569  0.5411253594825414
  0.1303795494661762  0.3820296377988964  0.4773792860554388
  0.1968252072923657  0.9598529848783890  0.3706784778516835
  0.6324445600666394  0.7950859906520505  0.6367605049588694
  0.6620858473610052  0.0732100251516700  0.5528325916030886
  0.2229173257973432  0.5267025133231036  0.3541860884042017
  0.4023834771779640  0.6682141412466762  0.3059848964829250
  0.4499292487845502  0.4131399159071555  0.5814658976198970
  0.0217133035133456  0.9636191050900594  0.4080564964538003
  0.9795029407644050  0.0546997951901279  0.5196979772864649
  0.3265437268709627  0.4822051808313054  0.6444851053234926
  0.5862293385861279  0.9197776350411626  0.2838861996325178
  0.8059722927466680  0.2829259908802846  0.2911980491601177
  0.0140103929387288  0.6131071120046210  0.4671498820125575
  0.0168012225065609  0.2431298702640772  0.4297389102333574
  0.4827815072869381  0.7071386806147499  0.5946293089943445
  0.4319121709668963  0.3529315681313803  0.3779379981388153
  0.2547176927198661  0.1373429386219007  0.4688951891576846
  0.8405406551166762  0.1901940646401811  0.5305057994342577
  0.1757492403787657  0.2990507223393309  0.6031264803004194
  0.0150545186695803  0.2111827757373549  0.5751201378691929
  0.9021224952613348  0.6652548612341241  0.6302122030759527
  0.7682890652403022  0.8848586501456575  0.2719381316644331
  0.7689894880935439  0.7873926359905435  0.5861362424310250
  0.5114936437129881  0.1384391827763476  0.6253533089571678
  0.8439284680792827  0.6684646138572538  0.5093802972619415
  0.3013406040502952  0.8395483739913082  0.5883495624201990
  0.3939098544263785  0.0400573863678658  0.6756957921427794
  0.3839779338520625  0.1826541228173645  0.4153886769914528
  0.6164691280937439  0.1089949712112140  0.4561203256591322
  0.1582337835304783  0.5460938732607034  0.5077604598453880
  0.5179142819052331  0.4464442609309421  0.4306645209990524
  0.1280203969110658  0.3759480195061077  0.3065914575449258
  0.5479604410458332  0.8981428686333991  0.3739103499745040
  0.8320827796660009  0.5420238013488343  0.3574070103429971
  0.5866026540564716  0.5559383577548688  0.5821775701273630
  0.0063826511475423  0.6451706574610570  0.3332657067537778
  0.7018262096376977  0.4147851390906384  0.5632116182545139
  0.2346471331851014  0.7465934818204378  0.3633145638424873
  0.8886543790839337  0.4821685261963514  0.5302594479447531
  0.8610043635530858  0.0636982809213815  0.4575749762242733
  0.3271115646565104  0.0323341009650104  0.6009127424983206
  0.6866541071615068  0.4154967679257520  0.3194812620876067
  0.7557617963839095  0.1666795917470144  0.3734757931109864
  0.5297623957825899  0.0794370375380968  0.3621862153352861
  0.0005235031945565  0.8166677396805869  0.5958377975304253
  0.3896920469701199  0.2900667576530125  0.6568061630952088
  0.3985685029311846  0.9582917344971185  0.4262381613871053
  0.6162767079466619  0.5671198999651202  0.3819354264044775
  0.6406927155600473  0.1523808990423703  0.2579504955448282
  0.6918247649796638  0.7529980767198530  0.4264069709599432
  0.8211704495680709  0.8874515497496223  0.3590617967919283
  0.9506939136067390  0.4355234052355825  0.4377524194275048
  0.8456153702480783  0.8812597550452840  0.6471596179697291
  0.5958505035784245  0.5080315491109965  0.5036925178873267
  0.0540391814451374  0.5270112307210069  0.6254518285996903
  0.4378567787293468  0.6370203956388766  0.6661567007905006
  0.6197291053941447  0.6584084730169472  0.2555940793244712
  0.5584795725562859  0.4627556904519097  0.6505203004814158
  0.5846755212448602  0.7493067788792598  0.3363326289726339
  0.7586331213484655  0.7190626763214654  0.3384249082245068
  0.6963991849736989  0.3650198132893445  0.4006972170981911
  0.7563934897966882  0.4018797507503219  0.4920972148514360
  0.2999641914956804  0.3590511355526281  0.4377759796063539
  0.7870602614428789  0.7250167678455913  0.7130786784204026
  0.5242653252434314  0.8770727336298528  0.6974317241211574
  0.8261434805394173  0.0665502189676910  0.2907596688627268
  0.1687960230088662  0.1466109981329497  0.3935405143347939
  0.2111521503638072  0.1322725903882108  0.6561007207343929
  0.5907458750440203  0.8391486821674145  0.5510845636268453
  0.1584766476766281  0.3326932884443858  0.3868949265283091
  0.0877406034862004  0.1841375733181280  0.4920305156364201
  0.2546259131781217  0.4533834571410087  0.5603796013850246
  0.9913487594794125  0.2544071914873384  0.6603784253013381
  0.0526059215013667  0.7769982504361718  0.3787721704922754
  0.9154192494612209  0.0551311224172019  0.3579764288988883
  0.6533805448359952  0.0077629414489817  0.6252307472363063
  0.4049820843594572  0.5983294927883049  0.5233015424985613
  0.8245264585577607  0.4582437889233765  0.6442162365621984
  0.1526922439896276  0.6202859854974501  0.4199852120239368
  0.3928207014609800  0.8272267295512507  0.5138643656348411
  0.1758970942883185  0.6145936954469631  0.6957801678999874
  0.3258991646571274  0.7858938430230785  0.6703662926377753
  0.1606154183688649  0.6645098175166358  0.2928467503308973
  0.1624056027915819  0.1027183129110337  0.3110034303474725
  0.6839271576530780  0.3070914255337585  0.6395777821134692
  0.1517547864381875  0.9108618578071622  0.6296963951809055
  0.2535473958170424  0.2921666905455056  0.5143091126433120
  0.8386600607463756  0.2894071250211102  0.7063084475010543
  0.2446410989083132  0.9318423755926990  0.7030880419723504
  0.9655643540306712  0.5846575372619761  0.7094235875266321
  0.9915499771834609  0.2537983317823116  0.6902696482998447
  0.3042973638897672  0.8043338329553462  0.6981661714442117
  0.8179998924701714  0.7026649289404117  0.7379112096652096
 
  0.00000000E+00  0.00000000E+00  0.00000000E+00
  0.00000000E+00  0.00000000E+00  0.00000000E+00
  0.00000000E+00  0.00000000E+00  0.00000000E+00
  0.00000000E+00  0.00000000E+00  0.00000000E+00
  0.00000000E+00  0.00000000E+00  0.00000000E+00
  0.00000000E+00  0.00000000E+00  0.00000000E+00
  0.00000000E+00  0.00000000E+00  0.00000000E+00
  0.00000000E+00  0.00000000E+00  0.00000000E+00
  0.00000000E+00  0.00000000E+00  0.00000000E+00
  0.00000000E+00  0.00000000E+00  0.00000000E+00
  0.00000000E+00  0.00000000E+00  0.00000000E+00
  0.00000000E+00  0.00000000E+00  0.00000000E+00
  0.00000000E+00  0.00000000E+00  0.00000000E+00
  0.00000000E+00  0.00000000E+00  0.00000000E+00
  0.00000000E+00  0.00000000E+00  0.00000000E+00
  0.00000000E+00  0.00000000E+00  0.00000000E+00
  0.00000000E+00  0.00000000E+00  0.00000000E+00
  0.00000000E+00  0.00000000E+00  0.00000000E+00
  0.00000000E+00  0.00000000E+00  0.00000000E+00
  0.00000000E+00  0.00000000E+00  0.00000000E+00
  0.00000000E+00  0.00000000E+00  0.00000000E+00
  0.00000000E+00  0.00000000E+00  0.00000000E+00
  0.00000000E+00  0.00000000E+00  0.00000000E+00
  0.00000000E+00  0.00000000E+00  0.00000000E+00
  0.00000000E+00  0.00000000E+00  0.00000000E+00
  0.00000000E+00  0.00000000E+00  0.00000000E+00
  0.00000000E+00  0.00000000E+00  0.00000000E+00
  0.00000000E+00  0.00000000E+00  0.00000000E+00
  0.00000000E+00  0.00000000E+00  0.00000000E+00
  0.00000000E+00  0.00000000E+00  0.00000000E+00
  0.00000000E+00  0.00000000E+00  0.00000000E+00
  0.00000000E+00  0.00000000E+00  0.00000000E+00
  0.00000000E+00  0.00000000E+00  0.00000000E+00
  0.00000000E+00  0.00000000E+00  0.00000000E+00
  0.00000000E+00  0.00000000E+00  0.00000000E+00
  0.00000000E+00  0.00000000E+00  0.00000000E+00
  0.00000000E+00  0.00000000E+00  0.00000000E+00
  0.00000000E+00  0.00000000E+00  0.00000000E+00
  0.00000000E+00  0.00000000E+00  0.00000000E+00
  0.00000000E+00  0.00000000E+00  0.00000000E+00
  0.00000000E+00  0.00000000E+00  0.00000000E+00
  0.00000000E+00  0.00000000E+00  0.00000000E+00
  0.00000000E+00  0.00000000E+00  0.00000000E+00
  0.00000000E+00  0.00000000E+00  0.00000000E+00
  0.00000000E+00  0.00000000E+00  0.00000000E+00
  0.00000000E+00  0.00000000E+00  0.00000000E+00
  0.00000000E+00  0.00000000E+00  0.00000000E+00
  0.00000000E+00  0.00000000E+00  0.00000000E+00
  0.00000000E+00  0.00000000E+00  0.00000000E+00
  0.00000000E+00  0.00000000E+00  0.00000000E+00
  0.00000000E+00  0.00000000E+00  0.00000000E+00
  0.00000000E+00  0.00000000E+00  0.00000000E+00
  0.00000000E+00  0.00000000E+00  0.00000000E+00
  0.00000000E+00  0.00000000E+00  0.00000000E+00
  0.00000000E+00  0.00000000E+00  0.00000000E+00
  0.00000000E+00  0.00000000E+00  0.00000000E+00
  0.00000000E+00  0.00000000E+00  0.00000000E+00
  0.00000000E+00  0.00000000E+00  0.00000000E+00
  0.00000000E+00  0.00000000E+00  0.00000000E+00
  0.00000000E+00  0.00000000E+00  0.00000000E+00
  0.00000000E+00  0.00000000E+00  0.00000000E+00
  0.00000000E+00  0.00000000E+00  0.00000000E+00
  0.00000000E+00  0.00000000E+00  0.00000000E+00
  0.00000000E+00  0.00000000E+00  0.00000000E+00
  0.00000000E+00  0.00000000E+00  0.00000000E+00
  0.00000000E+00  0.00000000E+00  0.00000000E+00
  0.00000000E+00  0.00000000E+00  0.00000000E+00
  0.00000000E+00  0.00000000E+00  0.00000000E+00
  0.00000000E+00  0.00000000E+00  0.00000000E+00
  0.00000000E+00  0.00000000E+00  0.00000000E+00
  0.00000000E+00  0.00000000E+00  0.00000000E+00
  0.00000000E+00  0.00000000E+00  0.00000000E+00
  0.00000000E+00  0.00000000E+00  0.00000000E+00
  0.00000000E+00  0.00000000E+00  0.00000000E+00
  0.00000000E+00  0.00000000E+00  0.00000000E+00
  0.00000000E+00  0.00000000E+00  0.00000000E+00
  0.00000000E+00  0.00000000E+00  0.00000000E+00
  0.00000000E+00  0.00000000E+00  0.00000000E+00
  0.00000000E+00  0.00000000E+00  0.00000000E+00
  0.00000000E+00  0.00000000E+00  0.00000000E+00
  0.00000000E+00  0.00000000E+00  0.00000000E+00
  0.00000000E+00  0.00000000E+00  0.00000000E+00
  0.00000000E+00  0.00000000E+00  0.00000000E+00
  0.00000000E+00  0.00000000E+00  0.00000000E+00
  0.00000000E+00  0.00000000E+00  0.00000000E+00
  0.00000000E+00  0.00000000E+00  0.00000000E+00
  0.00000000E+00  0.00000000E+00  0.00000000E+00
  0.00000000E+00  0.00000000E+00  0.00000000E+00
  0.00000000E+00  0.00000000E+00  0.00000000E+00
  0.00000000E+00  0.00000000E+00  0.00000000E+00
  0.00000000E+00  0.00000000E+00  0.00000000E+00
  0.00000000E+00  0.00000000E+00  0.00000000E+00
  0.00000000E+00  0.00000000E+00  0.00000000E+00
  0.00000000E+00  0.00000000E+00  0.00000000E+00
  0.00000000E+00  0.00000000E+00  0.00000000E+00
  0.00000000E+00  0.00000000E+00  0.00000000E+00
  0.00000000E+00  0.00000000E+00  0.00000000E+00
  0.00000000E+00  0.00000000E+00  0.00000000E+00
  0.00000000E+00  0.00000000E+00  0.00000000E+00
  0.00000000E+00  0.00000000E+00  0.00000000E+00
  0.00000000E+00  0.00000000E+00  0.00000000E+00
  0.00000000E+00  0.00000000E+00  0.00000000E+00
  0.00000000E+00  0.00000000E+00  0.00000000E+00
  0.00000000E+00  0.00000000E+00  0.00000000E+00
  0.00000000E+00  0.00000000E+00  0.00000000E+00
  0.00000000E+00  0.00000000E+00  0.00000000E+00
  0.00000000E+00  0.00000000E+00  0.00000000E+00
  0.00000000E+00  0.00000000E+00  0.00000000E+00
  0.00000000E+00  0.00000000E+00  0.00000000E+00
  0.00000000E+00  0.00000000E+00  0.00000000E+00
  0.00000000E+00  0.00000000E+00  0.00000000E+00
  0.00000000E+00  0.00000000E+00  0.00000000E+00
  0.00000000E+00  0.00000000E+00  0.00000000E+00
  0.00000000E+00  0.00000000E+00  0.00000000E+00
  0.00000000E+00  0.00000000E+00  0.00000000E+00
  0.00000000E+00  0.00000000E+00  0.00000000E+00
  0.00000000E+00  0.00000000E+00  0.00000000E+00
  0.00000000E+00  0.00000000E+00  0.00000000E+00
  0.00000000E+00  0.00000000E+00  0.00000000E+00
  0.00000000E+00  0.00000000E+00  0.00000000E+00
  0.00000000E+00  0.00000000E+00  0.00000000E+00
  0.00000000E+00  0.00000000E+00  0.00000000E+00
  0.00000000E+00  0.00000000E+00  0.00000000E+00
  0.00000000E+00  0.00000000E+00  0.00000000E+00
  0.00000000E+00  0.00000000E+00  0.00000000E+00
  0.00000000E+00  0.00000000E+00  0.00000000E+00
  0.00000000E+00  0.00000000E+00  0.00000000E+00
  0.00000000E+00  0.00000000E+00  0.00000000E+00
  0.00000000E+00  0.00000000E+00  0.00000000E+00
  0.00000000E+00  0.00000000E+00  0.00000000E+00
  0.00000000E+00  0.00000000E+00  0.00000000E+00
  0.00000000E+00  0.00000000E+00  0.00000000E+00
  0.00000000E+00  0.00000000E+00  0.00000000E+00
  0.00000000E+00  0.00000000E+00  0.00000000E+00
  0.00000000E+00  0.00000000E+00  0.00000000E+00
  0.00000000E+00  0.00000000E+00  0.00000000E+00
  0.00000000E+00  0.00000000E+00  0.00000000E+00
  0.00000000E+00  0.00000000E+00  0.00000000E+00
  0.00000000E+00  0.00000000E+00  0.00000000E+00
  0.00000000E+00  0.00000000E+00  0.00000000E+00
  0.00000000E+00  0.00000000E+00  0.00000000E+00
  0.00000000E+00  0.00000000E+00  0.00000000E+00
  0.00000000E+00  0.00000000E+00  0.00000000E+00
  0.00000000E+00  0.00000000E+00  0.00000000E+00
  0.00000000E+00  0.00000000E+00  0.00000000E+00
  0.00000000E+00  0.00000000E+00  0.00000000E+00
  0.00000000E+00  0.00000000E+00  0.00000000E+00
  0.00000000E+00  0.00000000E+00  0.00000000E+00
  0.00000000E+00  0.00000000E+00  0.00000000E+00
  0.00000000E+00  0.00000000E+00  0.00000000E+00
  0.00000000E+00  0.00000000E+00  0.00000000E+00
  0.00000000E+00  0.00000000E+00  0.00000000E+00
  0.00000000E+00  0.00000000E+00  0.00000000E+00
  0.00000000E+00  0.00000000E+00  0.00000000E+00
  0.00000000E+00  0.00000000E+00  0.00000000E+00
  0.00000000E+00  0.00000000E+00  0.00000000E+00
  0.00000000E+00  0.00000000E+00  0.00000000E+00
  0.00000000E+00  0.00000000E+00  0.00000000E+00
  0.00000000E+00  0.00000000E+00  0.00000000E+00
  0.00000000E+00  0.00000000E+00  0.00000000E+00
  0.00000000E+00  0.00000000E+00  0.00000000E+00
  0.00000000E+00  0.00000000E+00  0.00000000E+00
  0.00000000E+00  0.00000000E+00  0.00000000E+00
  0.00000000E+00  0.00000000E+00  0.00000000E+00
  0.00000000E+00  0.00000000E+00  0.00000000E+00
  0.00000000E+00  0.00000000E+00  0.00000000E+00
  0.00000000E+00  0.00000000E+00  0.00000000E+00
  0.00000000E+00  0.00000000E+00  0.00000000E+00
  0.00000000E+00  0.00000000E+00  0.00000000E+00
  0.00000000E+00  0.00000000E+00  0.00000000E+00
  0.00000000E+00  0.00000000E+00  0.00000000E+00
  0.00000000E+00  0.00000000E+00  0.00000000E+00
  0.00000000E+00  0.00000000E+00  0.00000000E+00
  0.00000000E+00  0.00000000E+00  0.00000000E+00
  0.00000000E+00  0.00000000E+00  0.00000000E+00
  0.00000000E+00  0.00000000E+00  0.00000000E+00
  0.00000000E+00  0.00000000E+00  0.00000000E+00
  0.00000000E+00  0.00000000E+00  0.00000000E+00
  0.00000000E+00  0.00000000E+00  0.00000000E+00
  0.00000000E+00  0.00000000E+00  0.00000000E+00
  0.00000000E+00  0.00000000E+00  0.00000000E+00
  0.00000000E+00  0.00000000E+00  0.00000000E+00
  0.00000000E+00  0.00000000E+00  0.00000000E+00
  0.00000000E+00  0.00000000E+00  0.00000000E+00
  0.00000000E+00  0.00000000E+00  0.00000000E+00
  0.00000000E+00  0.00000000E+00  0.00000000E+00
  0.00000000E+00  0.00000000E+00  0.00000000E+00
  0.00000000E+00  0.00000000E+00  0.00000000E+00
  0.00000000E+00  0.00000000E+00  0.00000000E+00
  0.00000000E+00  0.00000000E+00  0.00000000E+00
  0.00000000E+00  0.00000000E+00  0.00000000E+00
  0.00000000E+00  0.00000000E+00  0.00000000E+00
  0.00000000E+00  0.00000000E+00  0.00000000E+00
  0.00000000E+00  0.00000000E+00  0.00000000E+00
  0.00000000E+00  0.00000000E+00  0.00000000E+00
  0.00000000E+00  0.00000000E+00  0.00000000E+00
  0.00000000E+00  0.00000000E+00  0.00000000E+00
  0.00000000E+00  0.00000000E+00  0.00000000E+00
  0.00000000E+00  0.00000000E+00  0.00000000E+00
  0.00000000E+00  0.00000000E+00  0.00000000E+00
  0.00000000E+00  0.00000000E+00  0.00000000E+00
  0.00000000E+00  0.00000000E+00  0.00000000E+00
  0.00000000E+00  0.00000000E+00  0.00000000E+00
  0.00000000E+00  0.00000000E+00  0.00000000E+00
  0.00000000E+00  0.00000000E+00  0.00000000E+00
  0.00000000E+00  0.00000000E+00  0.00000000E+00
  0.00000000E+00  0.00000000E+00  0.00000000E+00
  0.00000000E+00  0.00000000E+00  0.00000000E+00
  0.00000000E+00  0.00000000E+00  0.00000000E+00
  0.00000000E+00  0.00000000E+00  0.00000000E+00
  0.00000000E+00  0.00000000E+00  0.00000000E+00
  0.00000000E+00  0.00000000E+00  0.00000000E+00
  0.00000000E+00  0.00000000E+00  0.00000000E+00
  0.00000000E+00  0.00000000E+00  0.00000000E+00
  0.00000000E+00  0.00000000E+00  0.00000000E+00
  0.00000000E+00  0.00000000E+00  0.00000000E+00
  0.00000000E+00  0.00000000E+00  0.00000000E+00
  0.00000000E+00  0.00000000E+00  0.00000000E+00
  0.00000000E+00  0.00000000E+00  0.00000000E+00
  0.00000000E+00  0.00000000E+00  0.00000000E+00
  0.00000000E+00  0.00000000E+00  0.00000000E+00
  0.00000000E+00  0.00000000E+00  0.00000000E+00
